LAMMPS (22 Jul 2025 - Update 2)
# TIO2 MELT QUENCH

variable runString string cool_npt

units             real
dimension         3
atom_style        charge

boundary p p p
read_data         hot_npt.data
Reading data file ...
  orthogonal box = (1.3540535 1.3540535 1.3540535) to (14.645946 14.645946 14.645946)
  1 by 1 by 1 MPI processor grid
  reading atoms ...
  189 atoms
  reading velocities ...
  189 velocities
  read_data CPU = 0.001 seconds

pair_style buck/coul/long 10.0
pair_coeff 2 2 717654 0.154 120.997
pair_coeff 1 2 391053 0.194 290.392
pair_coeff 1 1 271719 0.234 696.941

kspace_style      ewald 1.0e-4

#fix               F1 all nve
fix               F2 all npt temp 3000.0 300.0 $(100*dt) iso 0 0 $(100*dt)
fix               F2 all npt temp 3000.0 300.0 100 iso 0 0 $(100*dt)
fix               F2 all npt temp 3000.0 300.0 100 iso 0 0 100
#fix               F3 all nvt temp 3000.0 3000.0 $(100*dt)
#fix               F4 all temp/rescale 1 10.0 10.0 5.0 1.0

#velocity          all create 800.0 97475745 dist gaussian

group Ti type 2
63 atoms in group Ti
group O type 1
126 atoms in group O

#compute TiMSD Ti msd com yes average no
#compute OMSD O msd com yes average no
#fix 1 Ti ave/time 1 1 200 c_TiMSD[*] file ${runString}.msdTi mode vector
#fix 2 O ave/time 1 1 200 c_OMSD[*] file ${runString}.msdO mode vector


neighbor          0.3 bin
neigh_modify      delay 0 every 1 check yes

thermo            100
thermo_style custom step temp pxx pyy pzz density pe

dump D1 all custom 10000 ${runString}.dump id type x y z ix iy iz
dump D1 all custom 10000 cool_npt.dump id type x y z ix iy iz


timestep          0.5
run               400000
Ewald initialization ...
  using 12-bit tables for long-range coulomb
  G vector (1/distance) = 0.28935212
  estimated absolute RMS force accuracy = 0.033353158
  estimated relative force accuracy = 0.00010044204
  KSpace vectors: actual max1d max3d = 128 4 364
                  kxmax kymax kzmax  = 4 4 4
Generated 0 of 1 mixed pair_coeff terms from geometric mixing rule
Neighbor list info ...
  update: every = 1 steps, delay = 0 steps, check = yes
  max neighbors/atom: 2000, page size: 100000
  master list distance cutoff = 10.3
  ghost atom cutoff = 10.3
  binsize = 5.15, bins = 3 3 3
  1 neighbor lists, perpetual/occasional/extra = 1 0 0
  (1) pair buck/coul/long, perpetual
      attributes: half, newton on
      pair build: half/bin/atomonly/newton
      stencil: half/bin/3d
      bin: standard
Per MPI rank memory allocation (min/avg/max) = 10.51 | 10.51 | 10.51 Mbytes
   Step          Temp           Pxx            Pyy            Pzz          Density         PotEng    
         0   3317.1132     -1228.6759      26094.101      8770.0928      3.5578333     -54258.12     
       100   3102.3869     -24540.488      56039.215     -23477.83       3.4966173     -54159.357    
       200   3072.7784      7098.7323      16879.574     -43211.892      3.4120988     -54190.326    
       300   2910.1665     -40985.446     -147.84764     -46418.782      3.3870071     -54207.492    
       400   2870.7625     -12164.681     -17678.161     -6015.4865      3.3924817     -54291.932    
       500   2536.4146     -30967.722     -6531.1922     -31748.231      3.1773289     -54161.855    
       600   2667.8501     -6528.6239     -22741.373     -16035.875      3.2715144     -54212.576    
       700   2869.5086      27136.711      54103.128      22895.148      3.3676777     -54265.833    
       800   2749.9119      1179.8858     -22515.743      6620.4911      3.3724379     -54150.995    
       900   2957.1113     -18678.563     -48582.205     -57802.232      3.3510491     -54224.744    
      1000   2943.3152      5443.7672     -44199.242     -35778.661      3.3920736     -54182.115    
      1100   2952.9287      4196.7691     -654.835        3770.1699      3.4785382     -54151.355    
      1200   2982.2557     -4233.6463      24207.63       28009.895      3.4889224     -54119.208    
      1300   2970.8824      9763.6044      34005.423     -2237.2638      3.4584146     -54068.167    
      1400   3074.9461      14350.183      9786.1041     -4721.0114      3.3746966     -54084.002    
      1500   3147.9833      38365.884     -1360.0138      55395.974      3.4359807     -54092.338    
      1600   2974.6176      17972.823      9697.2798      52029.497      3.3907091     -54003.039    
      1700   2943.0967     -4492.1512      3667.7094      3921.1013      3.377062      -54038.561    
      1800   3009.9112     -8925.92        460.19583      3152.0342      3.4698589     -54144.396    
      1900   2785.0854      33092.009     -6293.8571      3571.1004      3.5148619     -54078.926    
      2000   2734.3586      33191.255      15357.436     -512.90434      3.4477951     -54095.9      
      2100   2754.6825      2563.4004      20795.672      18277.617      3.4055091     -54121.351    
      2200   2805.2635      11451.017      26930.082      42327.301      3.4554531     -54112.191    
      2300   3292.9313     -215.24845     -2866.8233     -1828.1463      3.3782353     -54296.573    
      2400   3024.5741     -30814.345      16983.731     -8446.487       3.4704221     -54045.172    
      2500   3309.0549     -15088.038      21874.434      19006.485      3.4631641     -54128.921    
      2600   2755.484      -11375.853     -14857.809     -8074.1303      3.2809098     -53845.408    
      2700   3151.9014     -4988.3827     -29925.771     -14258.806      3.285787      -54099.181    
      2800   2971.6991      27250.199      16697.633     -3229.1917      3.4653293     -54136.922    
      2900   2858.3722      16538.352     -5250.4618      37700.875      3.397247      -54229.126    
      3000   2631.502       7839.9949      23853.906      7752.2986      3.3444104     -54146.631    
      3100   2557.3674      4233.67       -18828.593     -31116.291      3.3169528     -54070.713    
      3200   2831.9904     -19005.455     -29199.589     -20950.122      3.3572186     -54137.871    
      3300   3099.7175      14393.346      6800.1685      34541.757      3.4629314     -54198.195    
      3400   3054.32        199.64804      49198.329     -4112.0325      3.3522242     -54127.149    
      3500   3002.5657      14268.331      36265.502      8643.0227      3.3754784     -54072.449    
      3600   2957.2205      40497.554      40269.245      14040.918      3.3654083     -54027.778    
      3700   3162.6801      15323.695     -1379.9089      2580.9973      3.3253012     -54137.789    
      3800   2998.5976     -8343.0848     -18323.487     -10853.724      3.3372337     -54097.458    
      3900   3058.69       -5774.9943     -3129.8968     -8578.6616      3.4376983     -54266.315    
      4000   2858.6889      15305.451     -9793.5426     -9157.9209      3.4890609     -54330.054    
      4100   2896.1405      2262.1519     -4726.1711      10851.052      3.5202722     -54406.362    
      4200   2842.1514      7617.382      -58590.854      15266.771      3.4956109     -54359.773    
      4300   2893.093      -24404.099     -17813.293     -18130.381      3.4589226     -54359.103    
      4400   2697.663      -34371.839     -24122.468     -5337.2925      3.4067825     -54182.057    
      4500   2814.3608     -67959.392     -9348.7609     -21.818706      3.422909      -54148.292    
      4600   2952.4096     -17838.073     -18101.871     -11435.775      3.3738741     -54149.173    
      4700   2718.8899     -5501.8726      5105.2662      14685.189      3.3579291     -53978.619    
      4800   2972.797       38599.835      12029.209      44832.168      3.504771      -54078.99     
      4900   3054.9447      44401.893      35619.539     -1925.389       3.5081664     -54103.192    
      5000   3041.5509      40458.563     -5246.61        42955.066      3.5692781     -54069.285    
      5100   3163.5368     -7399.2892     -8642.1315     -2686.5506      3.4524122     -54099.142    
      5200   3146.976      -10501.952     -23630.443     -27428.103      3.4601026     -54086.672    
      5300   2984.543       751.18949      16920.231      30112.328      3.5521878     -54067.019    
      5400   3108.669       47724.008      54168.41      -4397.0943      3.5384943     -54257.241    
      5500   2844.9282      19201.536      12581.02      -8532.9856      3.4213198     -54223.499    
      5600   2916.1925      20824.432      2149.7702      9999.6155      3.4738073     -54344.032    
      5700   2920.2952      34615.078      40013.817     -19316.697      3.5249957     -54396.382    
      5800   2702.5469      21390.829      12537.602      6805.9341      3.5182214     -54326.067    
      5900   2671.7073     -12698.543     -12511.08      -21466.682      3.3481502     -54360.44     
      6000   2539.9322     -22166.877     -14655.287     -45347.549      3.2564047     -54279.746    
      6100   2807.0197     -22228.99      -26288.17      -16431.402      3.3342057     -54316.761    
      6200   2808.8849      13621.958      368.40608      25892.045      3.4345623     -54194.867    
      6300   3071.8475      26585.328      14408.093     -8510.0752      3.4427555     -54293.404    
      6400   2851.2811      17954.327      3741.9391      5309.5451      3.4378251     -54150.503    
      6500   3077.3519     -4525.7169      16391.602      1565.4462      3.4714772     -54271.961    
      6600   2955.5816     -4799.8203      404.62363      17280.66       3.4777706     -54230.12     
      6700   2880.0439     -3198.9661      19542.332      21934.613      3.5429292     -54228.931    
      6800   2988.6568     -27959.264     -3581.0796     -11766.542      3.4190468     -54342.364    
      6900   2752.5377      25801.185     -4879.6194      6946.7769      3.4809053     -54272.366    
      7000   2743.5701      9371.9863      25484.47       41761.397      3.5289355     -54315.082    
      7100   2807.8154      62.719508     -2480.4838     -5223.5884      3.4646869     -54382.182    
      7200   2803.2406      20090.706     -8583.5482      21790.635      3.4374069     -54375.429    
      7300   2827.0496     -10304.619     -30800.444      12310.078      3.3688919     -54313.062    
      7400   2995.5911     -111.9269      -46950.013      6527.0997      3.4512547     -54262.771    
      7500   3103.1772     -10492.459     -22520.876     -7513.0148      3.4495252     -54232.016    
      7600   3280.9309      1920.3275      20284.665      7864.6923      3.5671277     -54309.363    
      7700   2832.2073      32957.148      10269         -42436.437      3.4954136     -54090.106    
      7800   2793.3179     -36763.259      46783.327     -21830.15       3.556826      -54093.789    
      7900   3021.5486     -19279.081      12808.208     -13428.989      3.5400713     -54225.792    
      8000   3199.593      -39085.676     -13858.645     -25178.01       3.4959297     -54353.603    
      8100   3088.1802     -12443.58      -25468.921     -242.62161      3.5317615     -54374.139    
      8200   2761.2792     -18039.064      12873.141     -34652.974      3.4653964     -54312.937    
      8300   2715.5506     -8136.5178     -15007.074     -26174.967      3.5356201     -54376.095    
      8400   2660.0281     -31212.588      12630.263     -14236.929      3.524632      -54383.688    
      8500   2608.4902     -24471.397     -19956.269     -6291.3974      3.4764936     -54334.008    
      8600   3134.2847      29574.935     -8423.5178     -18412.376      3.5482899     -54532.491    
      8700   2657.1558      34312.783      3357.0367      20112.764      3.5705725     -54180.952    
      8800   2987.4109     -7972.1037      28810.755      21651.978      3.5451852     -54293.757    
      8900   3057.187      -22468.273      4424.2107      553.84192      3.425223      -54304.011    
      9000   2801.4194     -21271.865      31153.786     -15292.726      3.5081371     -54149.929    
      9100   2957.1405     -36879.456      9388.4143     -10850.008      3.3609113     -54217.394    
      9200   3106.5701     -28127.927     -15896.203      32063.795      3.5234025     -54303.388    
      9300   2876.9815     -8287.3098     -2247.7579      36837.337      3.5383192     -54232.186    
      9400   3083.3594     -13176.458     -2295.0837     -26277.772      3.4448166     -54420.4      
      9500   3049.5556      14744.075      18691.611      2955.4772      3.5299161     -54533.554    
      9600   3051.0964      5334.8587      16137.071      26550.961      3.5427962     -54637.859    
      9700   2663.3616      17431.215      20311.606      27753.719      3.5548359     -54465.205    
      9800   2734.847      -20921.182     -24735.067     -16688.528      3.4246582     -54492.532    
      9900   2845.3543     -18783.501     -18625.513      16659.115      3.4986365     -54535.351    
     10000   2605.0275     -12469.495     -18414.873      22671.952      3.4996532     -54350.681    
     10100   2867.355      -14237.729     -18617.976      5595.5179      3.5154534     -54438.39     
     10200   2844.6723      17712.176     -24709.523      31600.735      3.5493484     -54380.319    
     10300   2927.3759      51372.98      -5832.5816      31736          3.5707923     -54394.671    
     10400   2890.9252      19190.667     -11331.21       11438.277      3.4893315     -54353.301    
     10500   3199.244       5533.1798     -16499.2       -24312.703      3.5118928     -54520.804    
     10600   2812.0896     -8188.662       14683.318     -1382.2905      3.5560814     -54304.367    
     10700   2972.5238     -8731.4191      42807.957      6678.8183      3.5190808     -54356.52     
     10800   3200.4358      19639.89      -16793.277      5531.1087      3.4535143     -54422.766    
     10900   3267.3793      56237.209      53390.924      66282.195      3.5916215     -54341.44     
     11000   3045.692       17571.303      14676.375      13571.666      3.4924335     -54101.495    
     11100   3017.3328      22339.431      3284.0316     -1334.0238      3.3967848     -54029.497    
     11200   3358.4155      17527.516     -35375.416      5634.8939      3.398345      -54234.224    
     11300   2939.2165     -8253.9508      7749.4632      9022.7812      3.3327057     -54081.693    
     11400   2881.2401     -2244.8283     -1507.4602      3319.3435      3.321928      -54155.141    
     11500   3076.1872     -7714.9668     -7159.5259      19216.676      3.4526181     -54341.101    
     11600   2803.7692      4813.897       37579.129     -12334.291      3.4911258     -54243.239    
     11700   2922.5874      8950.6209      29336.753      44509.307      3.6997204     -54320.262    
     11800   3047.8584      12742.691      10540.08      -3092.5672      3.5867809     -54413.055    
     11900   3013.0343     -1302.2089      1326.1939      24961.299      3.6836294     -54433.265    
     12000   2718.5474     -21558.948      16771.268     -36253.041      3.6254906     -54340.436    
     12100   2962.3614     -17847.077     -27837.688     -47426.037      3.5900575     -54514.009    
     12200   2773.8609     -20112.011     -35040.348     -24685.537      3.5658286     -54444.953    
     12300   2845.4805     -4839.9612      8723.7778     -19095.156      3.5926903     -54488.335    
     12400   2661.6551      10269.72       29928.114      17.682618      3.566378      -54324.468    
     12500   2999.3392      22289.802      2265.9282     -17169.919      3.5543279     -54344.866    
     12600   2921.8634      15792.098     -20122.2        14.626989      3.464017      -54192.093    
     12700   3095.3038     -3841.7049      14083.555      18078.098      3.3966461     -54224.892    
     12800   3191.5378      12384.592      9730.7394      21617.918      3.4169484     -54227.519    
     12900   2921.9707     -281.23611      29382.337      23426.871      3.399082      -54063.322    
     13000   2747.0487     -5515.2082      25336.854     -4194.8738      3.3235386     -54003.757    
     13100   2873.9549     -34565.471     -7147.9607     -28182.787      3.3352673     -54152.092    
     13200   2852.4986     -20752.375     -15073.952     -6727.7743      3.405601      -54241.155    
     13300   2830.7551      28486.919      5510.6551     -6543.2169      3.4665989     -54331.375    
     13400   2740.5903     -384.63769     -3147.8133     -27785.013      3.4407671     -54326.28     
     13500   2801.3872      2277.0277      9286.5542     -2390.5589      3.5020515     -54348.321    
     13600   2778.2785     -17794.716      3989.5486     -17066.295      3.559056      -54318.046    
     13700   2641.0119      18605.931     -18049.719     -31381.294      3.4761459     -54206.091    
     13800   2794.9396      26302.208     -11374.038      780.12649      3.5013457     -54284.286    
     13900   2736.4392      29359.482      8297.2996      12937.997      3.5709878     -54232.046    
     14000   3032.9        -2037.842      -27535.986      2084.3195      3.42006       -54357.14     
     14100   2926.0168      33566.719     -9091.1041      11114.123      3.5351295     -54268.022    
     14200   3112.6218      5278.3404     -3118.9272     -6790.9581      3.5872127     -54345.164    
     14300   2902.5978     -10463.164     -53483.006     -22185.628      3.4434746     -54230.8      
     14400   2936.6065      5973.9203      37450.156     -8247.4423      3.4382921     -54258.978    
     14500   2879.5772      44635.612     -13869.917      15788.552      3.5271227     -54260.84     
     14600   2912.1534     -30206.365     -16548.548     -9325.949       3.394873      -54299.918    
     14700   2965.6675     -22625.264     -22212.305     -38415.664      3.420871      -54335.701    
     14800   2866.4345      6965.45       -32846.818     -22317.483      3.5092651     -54285.396    
     14900   2716.0052      117.89245     -11284.847     -17115.958      3.4474353     -54206.537    
     15000   2669.4229      3202.689      -15123.203     -23158.212      3.4401338     -54163.119    
     15100   2806.651      -42419.955      24083.752     -11755.408      3.3643769     -54170.254    
     15200   2937.2298      21131.368      24971.749      2052.1625      3.43636       -54145.898    
     15300   2846.1551      20122.922      15432.773      16177.724      3.4062814     -54012.319    
     15400   3078.2128      16481.008     -10378.967     -16125.06       3.426965      -54089.579    
     15500   2999.3665      13725.733     -16162.89      -17818.906      3.4858636     -54058.58     
     15600   3070.4377     -26905.003     -14753.444     -79240.639      3.3850276     -54169.814    
     15700   2838.2621     -9345.9694     -17068.332      9747.2633      3.4497233     -54149.191    
     15800   2940.0719      15844.44       9309.6883      11477.941      3.5423911     -54305.979    
     15900   2946.9992     -8977.6113      12834.163     -10268.355      3.4969598     -54329.101    
     16000   3119.8134      30439.296      15364.167     -12261.921      3.4965977     -54440.879    
     16100   2953.1134     -503.48271      15971.509      10633.644      3.4778039     -54382.602    
     16200   2868.042       1620.4942     -13258.516     -1449.2557      3.4418885     -54338.035    
     16300   2952.807      -17830.644      2590.7907     -35043.564      3.4332426     -54359.714    
     16400   2952.8402     -25238.019     -30227.786     -27592.152      3.4393625     -54321.233    
     16500   3111.1116      9130.6495     -15541.143      2419.4383      3.4537416     -54351.151    
     16600   3004.9048      8676.3661      6673.8904      6621.0335      3.4441069     -54240.265    
     16700   2928.7396     -525.99548     -1739.9099     -24796.256      3.4237211     -54142.638    
     16800   2957.8436     -363.7113      -7425.032      -24543.669      3.2937775     -54084.881    
     16900   3298.1552      12567.9       -5961.8794     -2333.1941      3.3566375     -54188.813    
     17000   3034.0713     -18740.544      18047.821      16879.773      3.3729865     -54029.147    
     17100   3068.2659      22966.299      16819.827     -10778.846      3.4855667     -54129.227    
     17200   2744.0374      2988.2434     -12570.152     -1712.0684      3.379121      -54122.69     
     17300   2789.6766     -22200.494     -2818.3406      3591.6014      3.4395154     -54246.159    
     17400   2920.9942      9418.6752     -1420.4338     -15819.726      3.4197589     -54347.136    
     17500   3003.2493     -6012.4827      556.7914      -16132.886      3.5021902     -54415.712    
     17600   2768.4304      10769.789      7137.1132     -14570.103      3.4527391     -54318.857    
     17700   2751.1762      2931.8246     -5852.7684      7019.3203      3.3703721     -54325.614    
     17800   2757.5497     -1577.993      -821.38989     -19378.924      3.3679991     -54295.587    
     17900   2852.0935      10051.487      23946.175      219.05787      3.4404426     -54264.063    
     18000   3136.8484      32334.551      5134.385      -7147.5241      3.47956       -54313.445    
     18100   3083.7358     -24989.263     -23679.747     -15751.747      3.4091157     -54194.265    
     18200   3215.2222      45445.509     -47365.333     -29161.738      3.424627      -54250.111    
     18300   3021.8281      15715.867      31334.899      35048.901      3.4547826     -54159.096    
     18400   3039.2613      37828.47       38275.255      27490.881      3.5586156     -54228.074    
     18500   2987.3729      19009.953      16095.182     -21227.763      3.5149226     -54255.646    
     18600   2808.103      -4543.0733      11963.505     -19324.196      3.4181961     -54226.008    
     18700   2980.6307      12349.987     -5196.0185     -43280.322      3.4791292     -54334.936    
     18800   2934.8171      18493.227      24777.333      10364.538      3.4568358     -54329.617    
     18900   2983.0472      22492.607     -350.56214      20412.23       3.5357305     -54374.182    
     19000   3035.1542      6358.2493     -22648.372     -11393.186      3.480068      -54409.024    
     19100   2971.5946     -5676.3532     -17917.096      15874.08       3.5976014     -54391.911    
     19200   2885.6298     -8428.8988     -6415.1674     -30891.16       3.4996912     -54392.057    
     19300   2599.1073     -7223.4877     -11393.7        16680.365      3.56372       -54297.498    
     19400   2750.3707      37809.175      21057.154     -5291.8856      3.5620412     -54438.482    
     19500   3039.2335      32200.973      28506.362      52349.36       3.6120239     -54642.799    
     19600   2643.379       13789.997     -11668.309      11736.282      3.5221931     -54485.387    
     19700   2849.5882     -25180.834     -16528.15      -4906.3237      3.4776639     -54625.696    
     19800   2707.9354     -58007.653     -9420.5638     -9663.2132      3.4542112     -54531.844    
     19900   2789.9962     -32006.381     -24935.308     -23797.411      3.4934137     -54499.19     
     20000   2683.5511      2241.2152     -15486.285      15068.187      3.5377882     -54312.41     
     20100   3039.7819     -46476.141     -14363.794     -17907.588      3.5704496     -54410.551    
     20200   2842.7875      5259.9104     -763.59307      12111.372      3.5570974     -54254.52     
     20300   3218.6967     -404.76185      26047.882      9501.548       3.6191532     -54476.891    
     20400   2750.5966     -34220.011      13647.552     -8983.7271      3.5181219     -54289.009    
     20500   2656.6475     -43300.058      4935.4007     -15880.31       3.4358469     -54303.288    
     20600   2577.6412     -25627.889     -13865.856     -17017.139      3.3284746     -54303.744    
     20700   2813.7068     -24453.99      -40672.619     -29672.999      3.3251147     -54441.62     
     20800   2841.0043     -9077.662      -29929.474      12546.839      3.4923767     -54437.972    
     20900   2801.7482      12750.794     -33192.859      8574.5373      3.5322692     -54392.026    
     21000   2945.157       26735.363     -5388.4616      39179.33       3.6364872     -54445.142    
     21100   3034.0938      32628.984     -3683.6468      18464.219      3.579807      -54490.988    
     21200   3061.3989     -2011.3777      26913.121      23637.566      3.5671372     -54513.429    
     21300   2637.1461      30390.109      22701.562      26613.154      3.5794123     -54316.991    
     21400   2783.9932      24389.589      16165.752      52367.881      3.6362025     -54399.843    
     21500   2922.4757     -29714.961     -4182.531      -4930.7149      3.4594124     -54461.207    
     21600   2603.7468     -6779.7776     -8038.0783      3883.2369      3.4473305     -54251.991    
     21700   2947.6586     -2810.8287      27324.533     -27822.128      3.432493      -54366.766    
     21800   3043.4411      12658.395      2942.2798     -19093.977      3.3882762     -54293.505    
     21900   3183.183      -909.33295      13530.906      2760.8148      3.3863847     -54252.978    
     22000   3244.3505      12236.987     -30261.509     -10303.46       3.5030324     -54266.22     
     22100   3179.3804      17218.041      14990.521     -12081.542      3.4350769     -54313.317    
     22200   2934.6082      39106.599      14354.598     -2327.0822      3.4296807     -54260.398    
     22300   2727.3378     -8755.3239     -286.8463       10750.224      3.3133499     -54188.995    
     22400   2966.1792      33536.346      24569.828      13484.053      3.4105058     -54334.164    
     22500   2759.6647      23752.103     -39255.076     -16926.454      3.3585123     -54210.524    
     22600   2784.521      -65503.978     -25224.392     -17383.667      3.4313761     -54219.378    
     22700   2803.8937     -13572.186     -25723.312     -5516.3078      3.3819809     -54215.094    
     22800   2606.6919     -19227.506     -20046.606     -3790.4394      3.4707984     -54063.743    
     22900   2936.9025     -11297.721     -9375.5309      9724.8429      3.4744446     -54184.802    
     23000   3089.0451      750.86957      7452.4492     -19113.362      3.4191061     -54173.062    
     23100   3100.2556     -29686.016      966.39925     -1369.4946      3.374617      -54132.347    
     23200   2976.7725     -4241.0021      32811.553     -29002.963      3.3922007     -54056.929    
     23300   3045.2682      47266.498      31986.135      13272.588      3.4406479     -54161.322    
     23400   3050.1476     -7853.5073      10940.339      21376.67       3.4425682     -54334.908    
     23500   2802.9244      2283.0292      2569.8535      2333.1297      3.4814372     -54320.324    
     23600   2930.456      -22137.512      17716.709     -13410.833      3.4247993     -54442.949    
     23700   2838.5785      10752.402     -4556.1667      36501.783      3.5199538     -54418.523    
     23800   2796.6266     -13544.443     -24228.078      40061.018      3.4957765     -54413.1      
     23900   2905.6065      9780.3816     -15289.344      17773.194      3.549512      -54462.123    
     24000   2758.8403     -10107.623     -10854.131     -5987.389       3.40877       -54382.482    
     24100   2887.9949      43265.993     -9708.6033      21186.203      3.5072623     -54438.533    
     24200   3071.142       36562.214      16561.612      27344.118      3.54622       -54463.617    
     24300   2868.7645      1904.6074     -23636.301      25790.054      3.4039691     -54276.485    
     24400   3014.5733      706.60294     -2940.9276      11403.913      3.3866705     -54310.245    
     24500   3093.2945     -3451.5083      27621.074     -8578.1467      3.4499791     -54327.9      
     24600   2810.6414     -13548.856      9045.3241      24172.339      3.4955902     -54193.718    
     24700   2891.8222     -1761.4208     -15716.601     -2331.5176      3.4839707     -54321.35     
     24800   2980.4547      13451.262      17304.793     -4867.0712      3.5340861     -54503.626    
     24900   2586.7827      23824.918      24841.46       31800.46       3.5589891     -54387.549    
     25000   2756.3611     -22709.831     -10190.098      2412.6296      3.3821302     -54506.69     
     25100   2760.6669     -23609.212     -10029.782      1937.5282      3.3428829     -54495.12     
     25200   2679.1696      2455.9923      20608.874      22343.181      3.4836492     -54413.259    
     25300   2946.9138     -19659.307      3479.1767     -24161.247      3.4793016     -54485.175    
     25400   2727.6604     -47570.294     -26408.623     -7666.4725      3.3456163     -54281.333    
     25500   2764.5466     -20852.391     -28681.773      20311.267      3.4597683     -54234.48     
     25600   2865.9588     -22139.865     -21103.015      25266.168      3.3979917     -54237.077    
     25700   2868.0508     -20148.229     -25305.88       9891.9933      3.3549402     -54228.256    
     25800   2836.2994      1698.8781     -21902.279      37230.991      3.4025141     -54221.081    
     25900   2885.8281     -19392.552      5079.8987      32063.415      3.4073359     -54250.846    
     26000   2939.3266      11915.528      49887.76       14428.474      3.4876377     -54287.152    
     26100   2852.4043     -14663.877      42380.848      23142.343      3.5160109     -54274.148    
     26200   2875.1108     -14391.286      18378.611      40031.149      3.4960111     -54357.147    
     26300   2762.4975     -23803.36       21238.429     -6772.4727      3.4357036     -54391.776    
     26400   2683.0173     -11698.517     -15213.672     -22311.797      3.4573691     -54426.558    
     26500   2635.7978     -15347.759     -28224.637     -22965.49       3.4515775     -54431.543    
     26600   2890.0782     -33695.71      -39122.908     -21989.176      3.4448938     -54565.006    
     26700   2756.0279     -9018.0599     -19926.325     -14258.278      3.4783846     -54420.787    
     26800   2936.9029     -8388.497       25051.196     -8197.3083      3.5359862     -54372.298    
     26900   3084.0969      10090.388     -30340.396     -5333.709       3.4180713     -54353.768    
     27000   2844.0444      28385.25       16126.563      17746.226      3.4804684     -54169.567    
     27100   3010.5186      18445.121      21066.204      27739.372      3.5322883     -54212.271    
     27200   2922.648       17487.172      20898.051      53519.443      3.5053555     -54158.854    
     27300   2905.2954      23123.815      11993.539      55159.548      3.5584242     -54172.151    
     27400   2855.0977      1923.5918      23210.16       4896.3216      3.5420132     -54223.658    
     27500   2706.0349      2007.3166     -26.468855      36396.256      3.5205173     -54274.415    
     27600   2593.1216     -5666.0056      21542.305      4332.3944      3.5219676     -54342.734    
     27700   2588.9591     -7505.1801     -26115.373     -6363.8808      3.4735514     -54351.37     
     27800   2800.9568     -20345.751     -38045.555     -6820.97        3.439393      -54430.113    
     27900   2812.1494      5570.4759     -2769.3318     -34330.98       3.4896354     -54397.256    
     28000   2791.0429      4711.6558     -29545.554      21158.633      3.4241655     -54366.95     
     28100   2849.7754     -2824.6732      13739.414      41819.503      3.4838164     -54380.68     
     28200   2978.0141      1449.5504     -27392.61       2959.047       3.4157359     -54417.296    
     28300   2877.9089     -23460.957     -41987.646     -7650.9275      3.3450331     -54286.045    
     28400   2811.5678      12075.245      10055.513     -12988.685      3.4485245     -54130.609    
     28500   3096.4916     -6153.6496     -5132.0782      21609.94       3.3682907     -54217.322    
     28600   2833.1417      28143.293      16678.951      37801.489      3.3660729     -54034.743    
     28700   3015.101       6085.6283      32621.533      19072.716      3.4053688     -54129.781    
     28800   2984.8993     -8063.691       25941.164      11205.672      3.4148457     -54169.294    
     28900   2644.2166      3048.2799      24623.045      4296.3421      3.4384734     -54134.04     
     29000   2573.7617      14576.412      10026.479      28269.919      3.4736321     -54210.454    
     29100   2709.6067      40590.741      9837.8069      27186.293      3.4265193     -54308.711    
     29200   2743.6276      21368.044     -3667.9186      18498.136      3.3780228     -54316.5      
     29300   2857.6013      38253.654      3296.8279      36962.899      3.5434803     -54350.458    
     29400   3042.3983      17174.875     -850.34493      16567.141      3.5455773     -54451.534    
     29500   2864.0244      578.08871      6969.3046      7165.4933      3.5079897     -54398.822    
     29600   2652.215       21473.002     -31945.015     -6318.7893      3.4270596     -54361.332    
     29700   2855.1365     -3402.3479      19629.691     -10068.696      3.5522989     -54558.517    
     29800   2530.2837      17758.052      16308.79       23335.83       3.5312634     -54470.79     
     29900   2622.4234      3661.2381      7120.0686      578.06         3.5560954     -54556.482    
     30000   2439.6292     -9157.3489     -8906.1859     -2589.5434      3.5914691     -54428.756    
     30100   2699.947      -11045.218     -28165.443     -26711.643      3.5622557     -54484.249    
     30200   2792.007      -33193.91      -44651.879     -23401.275      3.4951723     -54381.467    
     30300   2784.4882     -19554.295     -11821.751     -1487.8813      3.5235956     -54293.528    
     30400   2800.1789     -8568.895       6541.1841      1945.2033      3.5491866     -54284.959    
     30500   2780.7398      1705.1289     -8902.8987     -4538.9203      3.5036303     -54304.764    
     30600   2808.9708     -7381.5409     -2605.9234     -8263.0562      3.4876104     -54321.509    
     30700   2791.6037      3062.748      -230.50624     -3603.0843      3.4369979     -54342.541    
     30800   2912.3053      3413.1346      17464.275     -18820.109      3.4211855     -54433.077    
     30900   2839.8108     -2864.9053      6976.3609     -14527.25       3.4230199     -54414.871    
     31000   2574.5558     -11934.789      20178.1        4596.1649      3.4477687     -54306.749    
     31100   2778.7965     -19967.569      22414.349     -14693.353      3.4695177     -54473.438    
     31200   2590.5972      9034.7831     -23174.326      7541.9905      3.4701549     -54424.117    
     31300   2659.5456      13207.087      1380.6771      3171.1215      3.5170029     -54491.031    
     31400   2644.9888      8818.9326      24166.542     -21318.371      3.4696968     -54479.127    
     31500   2665.0353     -13340.212      12951.635     -11429.699      3.3577543     -54461.611    
     31600   2724.7736      8849.7467      5309.0836     -7088.7603      3.4103833     -54395.203    
     31700   2845.7622     -22849.788      6751.643       441.55123      3.374832      -54326.73     
     31800   3002.0426     -752.52169     -34241.88       6681.0767      3.298004      -54353.01     
     31900   2903.4426     -4073.9752      23382.604     -24295.739      3.3750499     -54296.175    
     32000   2878.9193      18978.118     -19398.329      9747.4695      3.4084032     -54286.576    
     32100   3096.3844      47265.894     -8415.3979      7966.0331      3.4135412     -54454.071    
     32200   2767.4366      7105.3515      11014.794     -5544.2369      3.3713184     -54354.375    
     32300   2723.7229      21618.167     -16073.335     -14327.993      3.3846056     -54427.687    
     32400   2749.3286      17363.052      2198.8197      8976.1166      3.4868901     -54508.661    
     32500   2550.6764      1939.5586     -667.48009     -1481.2754      3.4841354     -54420.876    
     32600   2559.0809     -17045.592     -39567.468     -43137.042      3.4159244     -54414.67     
     32700   2954.3834      4268.5671     -6665.3585     -36286.21       3.5969997     -54620.868    
     32800   2816.6167     -12943.837      3262.1949      5968.8324      3.63326       -54553.557    
     32900   2795.2715     -36906.064     -16065.91      -23249.657      3.5698733     -54547.482    
     33000   2944.1728     -38962.825     -30737.431     -8317.6459      3.58066       -54627.538    
     33100   2698.4129     -16668.448     -3554.0547     -14716.707      3.6620053     -54493.652    
     33200   2786.6943     -13089.488     -8100.0331      41140.48       3.6136924     -54529.451    
     33300   2821.9206      533.45478     -16698.916     -11488.52       3.5685424     -54514.171    
     33400   2579.2356     -12043.68      -24976.811      7395.2767      3.5445719     -54315.206    
     33500   2803.6868     -12891.867     -10209.933     -40074.877      3.6229742     -54361.005    
     33600   3039.1273     -23985.217      27586.243     -36835.031      3.5769935     -54407.804    
     33700   2929.4535      7866.5646     -27595.271     -28671.93       3.5315899     -54324.838    
     33800   2579.415       5251.1167     -35559.516     -26994.234      3.3774366     -54143.494    
     33900   2787.1733      19019.346     -558.2161       2797.3219      3.46922       -54312.467    
     34000   2516.251      -28364.263      20263.985     -10323.188      3.4523662     -54280.535    
     34100   2840.7399      22592.198     -9308.1232     -4958.4921      3.5746212     -54551.928    
     34200   2678.0449      14022.393     -10892.357     -3085.5512      3.4733449     -54540        
     34300   2603.262       14716.952     -5966.3401     -11344.282      3.5470075     -54520.213    
     34400   2540.7182      3206.354       31994.721     -6924.2931      3.5447648     -54454.668    
     34500   2656.5848      23473.716      9538.6856      20126.509      3.5129966     -54454.656    
     34600   2997.127      -841.95191      18653.441      12255.259      3.5493819     -54523.923    
     34700   2965.1183      15631.26       56090.81       51483.343      3.6170045     -54428.202    
     34800   3101.9604      11094.933      9477.339       42007.543      3.6253587     -54479.932    
     34900   2930.1395      16155.535      33097.112      21708.476      3.6381775     -54401.559    
     35000   2959.7005     -2916.7667      49270.733      34702.971      3.6627583     -54460.288    
     35100   2689.0771      6753.9104     -14198.235      25836.765      3.6893432     -54390.5      
     35200   2661.0417      3921.3286      37390.026      2928.7964      3.6919175     -54466.966    
     35300   2555.9548     -20782.577     -9654.3453     -15549.024      3.5272613     -54433.008    
     35400   2645.8955     -30194.262      24052.259      736.05387      3.6229168     -54487.792    
     35500   2866.929      -26788.42       8357.9578     -22978.7        3.6071274     -54584.412    
     35600   2606.1726     -13344.957      7567.883       4617.0922      3.5781692     -54406.057    
     35700   2901.2151      8823.3557     -2873.7149     -14355.199      3.6011657     -54514.49     
     35800   2533.9856     -27333.044      12775.897      19608.322      3.5582088     -54260.071    
     35900   2905.9778      29738.86       29976.153     -18086.063      3.531394      -54399.953    
     36000   2843.5664      45590.529      3227.7088      25702.982      3.620115      -54224.173    
     36100   3363.4678     -3794.0845     -7136.6411      10557.505      3.5135992     -54377.463    
     36200   2784.9147      8737.973      -21256.072     -25316.719      3.4702111     -54052.965    
     36300   2601.8315     -96.481924     -2488.2219      23428.773      3.5076209     -53992.327    
     36400   2693.4454     -16227.731      7111.8522     -17023.729      3.452265      -54153.901    
     36500   2963.6178     -807.61635     -27455.504     -29720.011      3.398644      -54411.199    
     36600   2858.7572      15523.588      30698.023      11471.058      3.5507079     -54409.364    
     36700   2792.7055     -21442.377     -3259.4994     -39670.99       3.5138578     -54413.109    
     36800   2710.3265     -25718.995     -20923.606     -11134.104      3.5338729     -54407.368    
     36900   2648.9586     -22335.422     -17110.493     -29372.213      3.4484713     -54399.511    
     37000   2660.452      -31427.63      -20925.267     -25189.039      3.4268198     -54398.776    
     37100   2831.7726     -20765.705     -25851.441     -12629.94       3.43306       -54466.428    
     37200   2910.2382     -37317.64       20978.887     -8859.6504      3.4562023     -54441.792    
     37300   2937.8672     -30166.688      18065.951      19231.398      3.4794581     -54327.413    
     37400   2848.2724     -23435.448     -12164.442     -28487          3.3769127     -54187.226    
     37500   3034.0347     -53136.457      1212.6996      1329.1004      3.4449319     -54283.425    
     37600   2910.467      -24882.314     -6668.1939      303.23945      3.3683347     -54268.439    
     37700   2939.2551     -23500.412     -21225.28       14578.078      3.4351907     -54392.332    
     37800   2611.8222      3233.1995      28093.375      385.48348      3.570443      -54308.252    
     37900   2713.1374     -17357.731      12907.004      19111.738      3.5368574     -54399.929    
     38000   2919.7377     -8699.8114      17162.03       17240.245      3.5587906     -54532.317    
     38100   3039.2066     -16789.416      10835.243      16668.014      3.5527623     -54614.823    
     38200   2668.6758     -15448.867      35850.63       13148.505      3.6043423     -54421.903    
     38300   2559.9936      20382.996      15789.847      1899.3162      3.6119829     -54370.473    
     38400   2855.6946     -14472.296     -4933.6871     -38232.432      3.475141      -54535.058    
     38500   2733.7432     -2053.7156      938.41985     -7158.5197      3.495859      -54483.775    
     38600   2752.7095     -636.87684     -7998.5971     -8114.3927      3.581653      -54516.474    
     38700   2750.7744      9466.3825     -12256.053     -5535.0508      3.6009653     -54531.677    
     38800   2709.9996     -7416.4847     -10856.44      -1668.3811      3.5624266     -54504.012    
     38900   2616.6474      24671.403     -504.14351      8041.9212      3.6252768     -54423.871    
     39000   2961.958      -2347.8535      1962.1384      19408.171      3.5844206     -54555.226    
     39100   2686.5359      21678.219      26307.371     -5955.6059      3.4946966     -54360.588    
     39200   2844.9885     -16237.355      41580.257      30724.241      3.5216241     -54404.956    
     39300   2782.177       21193.625     -4303.1739     -2846.6097      3.5565245     -54389.639    
     39400   2853.4194     -43196.404     -13228.185      6319.2743      3.4650528     -54479.596    
     39500   2650.4738     -32575.462     -9479.4283     -23344.589      3.4622673     -54450.859    
     39600   2708.6486     -33924.81      -12296.889     -3832.416       3.4149302     -54552.534    
     39700   2472.6955      15507.582      39728.285      20846.062      3.5099707     -54454.089    
     39800   2613.7346      15688.839      34765.602      7725.6301      3.5829677     -54544.668    
     39900   2629.5219     -8969.2144     -5030.5878      9688.5837      3.5069338     -54485.272    
     40000   2633.5612     -11533.786     -14487.074      8.4665137      3.5181401     -54342.629    
     40100   2494.0873     -18620.309     -17169.597      9702.7785      3.450522      -54147.274    
     40200   2900.6538     -6526.4829      19765.464     -15392.621      3.433611      -54338.702    
     40300   2662.8079     -129.72046      12029.794     -41178.3        3.4502103     -54230.449    
     40400   2777.7571     -31775.759     -4164.7389     -17290.412      3.5035187     -54346.846    
     40500   2650.6629     -34608.264     -19185.888     -39440.21       3.4658481     -54341.665    
     40600   2783.0371     -25808.16       479.07765      6326.5171      3.557458      -54483.939    
     40700   2460.0624     -46023.124      27300.544     -4996.7675      3.5423669     -54389.147    
     40800   2727.324      -15242.015      14777.461      4286.4191      3.5698804     -54571.332    
     40900   2859.2848      17607.027      13367.765     -950.95976      3.6465842     -54641.486    
     41000   2701.6389      8153.8752      21531.067      8882.2473      3.6041564     -54538.099    
     41100   2635.6401      1403.2868      15229.224      7920.7971      3.5355661     -54476.015    
     41200   2829.3222      16316.356      57000.722      11305.842      3.6191946     -54560.396    
     41300   3112.7825      4607.1074      6387.9258     -6653.3429      3.6687467     -54718.492    
     41400   2725.7546      34802.297      26216.548      49327.526      3.7233648     -54529.792    
     41500   2807.3539      33954.835      14844.752      13366.362      3.6783402     -54606.005    
     41600   2701.4175      5894.2395      29520.028     -4917.5133      3.5914274     -54611.072    
     41700   2519.7234      6634.6175     -37963.801     -11506.115      3.5028587     -54532.99     
     41800   2659.9349     -24899.834     -49184.547      32741.018      3.5563465     -54588.203    
     41900   2828.7937      10770.957     -31728.621      560.24708      3.5487486     -54557.452    
     42000   2820.0383      61591.498      13509.575      12511.67       3.561854      -54441.678    
     42100   2769.9191      23091.191      366.03307      13572.483      3.560545      -54374.538    
     42200   2925.9257      6576.3619      3389.1005     -27621.584      3.4673085     -54454.57     
     42300   2728.2962     -9857.9172     -11853.417      14419.451      3.5241448     -54386.043    
     42400   2724.9682      18890.064      14954.742      34647.753      3.4646226     -54464.22     
     42500   2766.7311     -9936.4047     -14544.721      25448.803      3.5540851     -54584.688    
     42600   2917.9373      2587.2693     -20231.662     -372.18367      3.5932143     -54752.227    
     42700   2614.3218     -19027.59      -32299.316     -2638.0775      3.5200195     -54649.503    
     42800   2481.3153     -21144.135      14493.45      -18123.145      3.4713928     -54599.006    
     42900   2484.1966      13004.05       8496.0947     -16824.557      3.5021529     -54580.318    
     43000   2546.4093     -13784.071      38638.493     -22300.59       3.4543816     -54556.404    
     43100   2808.2128      141.7897       55389.038     -23238.763      3.619538      -54626.757    
     43200   2640.151      -8543.0867     -2199.375      -24829.051      3.5022716     -54497.502    
     43300   2796.2493      8449.0993      4271.0544     -25349.103      3.5281018     -54554.271    
     43400   2914.7786      20425.574     -9279.1515      15774.22       3.5670345     -54598.761    
     43500   2791.9608      2127.9845     -10129.394      3750.2561      3.5727472     -54526.446    
     43600   2756.0427      268.20302     -12246.694     -31815.666      3.4746711     -54523.378    
     43700   2665.5129      14836.34       7887.6911      10260.916      3.6121988     -54563.509    
     43800   2750.868      -1131.3083     -23083.665     -17876.65       3.5559638     -54793.391    
     43900   2256.3551     -3343.5662     -12142.838     -2772.5131      3.5366988     -54591.537    
     44000   2543.4677     -19729.889      5988.9709     -17542.933      3.5178978     -54732.923    
     44100   2515.9043      9225.8645      28789.919     -11592.108      3.6025979     -54645.736    
     44200   2354.3221     -23779.659      28381.235      21982.796      3.5336624     -54467.78     
     44300   2750.7255      3238.5767      10926.678     -9717.3113      3.5740073     -54600.33     
     44400   2818.3105      25193.297      45045.028      3052.763       3.6388717     -54569.292    
     44500   2996.4048      6399.737       43424.648      5375.3169      3.6783491     -54622.929    
     44600   2801.6794     -13253.196      17743.665     -16575.023      3.49688       -54505.787    
     44700   2755.2573     -10030.782      7485.4785     -14583.057      3.5815641     -54516.819    
     44800   2613.0996     -20290.249     -1069.0516     -417.06942      3.5795086     -54518.281    
     44900   2692.1937     -45494.834      10038.525     -15330.735      3.6270393     -54666.263    
     45000   2727.03       -27866.069     -16926.63      -25351.355      3.6114233     -54749.347    
     45100   2502.0844      13386.572      5560.6323     -10373.672      3.6580054     -54642.31     
     45200   2623.6837     -7158.8052      9251.9337     -6399.4435      3.6650864     -54711.115    
     45300   2623.3293      5024.2659     -18422.73      -30111.632      3.5579637     -54702.267    
     45400   2688.9984     -13990.314      18752.178      5552.0479      3.6317326     -54724.329    
     45500   2637.3782      677.22278     -6272.8172     -31044.942      3.57222       -54665.01     
     45600   2530.9013      1938.2752      48311.422      4118.552       3.6614512     -54548.814    
     45700   2890.1412      20133.651      61939.508      31089.039      3.7622671     -54638.743    
     45800   3022.1764     -11033.428      42281.715      39060.014      3.6857952     -54604.117    
     45900   2932.6603      3329.7222      67895.246      29274.616      3.7677397     -54522.086    
     46000   2887.5934     -2357.9652      6193.5161      47052.106      3.6318986     -54521.092    
     46100   2756.0361      36962.478     -13507.818     -3330.4341      3.5487992     -54493.395    
     46200   2549.9701      3368.5523     -397.99069      18191.453      3.5900298     -54425.627    
     46300   2748.9856     -12196.386      21290.2        35537.701      3.6768788     -54549.819    
     46400   2733.8643     -26019.712     -16356.727     -10171.661      3.5309904     -54554.421    
     46500   2620.252       26578.767     -3771.6573      20635.848      3.6046709     -54491.697    
     46600   2537.4685     -8266.6986      4136.0929      1567.7433      3.5045249     -54446.51     
     46700   2747.9041     -12205.221      1001.1752      18626.988      3.5363596     -54546.381    
     46800   2857.296       4886.7247      656.2174      -11112.469      3.5277881     -54592.15     
     46900   2583.228      -17462.405      30155.274      6583.0563      3.6034586     -54412.115    
     47000   2667.9235      1337.6072     -491.44743      42621.732      3.6005243     -54410.963    
     47100   2826.426       10132.095      3266.3223      13923.043      3.5806696     -54436.633    
     47200   2929.5605      8685.6563      11739.032     -13450.121      3.4757079     -54446.954    
     47300   3008.8863      14370.213      29847.078      2291.7335      3.5455451     -54502.543    
     47400   2961.1797     -10664.307      18878.964     -4859.9965      3.4765718     -54572.389    
     47500   2764.4376     -4864.5386      10860.318     -12218.04       3.502925      -54583.689    
     47600   2683.944      -20031.855     -22904.003     -25112.035      3.47753       -54624.282    
     47700   2378.033      -10409.125     -21351.923     -7632.8931      3.4352886     -54451.901    
     47800   2674.3298      16317.981     -31826.064      15991.408      3.5378147     -54591.686    
     47900   2622.4547     -518.69229     -29956.219     -14754.837      3.4878856     -54525.766    
     48000   2506.718       14543.592      37096.052     -5930.9019      3.500115      -54410.545    
     48100   2644.6599     -5937.003       20721.776      26107.011      3.455868      -54400.838    
     48200   2942.5598      30345.38      -15644.051      16777.276      3.4431067     -54472.515    
     48300   2953.9879      4635.8382     -6371.4734     -5446.5135      3.3848078     -54416.307    
     48400   2940.9219     -34861.918      15426.798     -32305.265      3.3637624     -54390.251    
     48500   2898.7608      34865.488     -1732.7376      24443.023      3.4909412     -54395.73     
     48600   2917.8353      20522.614      10770.877      11772.146      3.4897397     -54454.034    
     48700   2769.0123      20138.968      23505.169      8908.1294      3.5304834     -54420.398    
     48800   2669.0408      3647.4084      2517.8816      17372.309      3.4789753     -54407.862    
     48900   2650.323      -837.40635     -29748.232     -23115.205      3.4285679     -54403.716    
     49000   2584.372      -1813.7984     -18038.267      8114.8889      3.4570046     -54400.099    
     49100   2788.872       8415.6718     -19171.056     -19526.1        3.3989146     -54530.655    
     49200   2550.6113     -23424.462     -21251.07       21976.946      3.4348716     -54393.499    
     49300   2735.7813     -16639.616     -20269.856     -3692.3596      3.4533307     -54472.505    
     49400   2710.5706     -26669.674     -9751.4706      13506.655      3.5267899     -54432.261    
     49500   2627.2182      29462.287     -3248.7238      34483.861      3.5564772     -54381.695    
     49600   2968.2751     -5528.8314     -41885.361      24012.452      3.4692397     -54588.436    
     49700   2584.1724     -6581.2016     -20656.657     -21045.027      3.4386191     -54402.909    
     49800   2527.5814      4544.2673      7337.4014      471.11409      3.4862795     -54439.329    
     49900   2549.1882      14241.638      9804.3119      2458.8009      3.5647147     -54545.196    
     50000   2359.6673      21212.062     -29820.239     -8511.6222      3.4895262     -54505.219    
     50100   2388.2677      4454.6124     -9779.9525     -1096.2058      3.5240252     -54544.681    
     50200   2584.84       -36151.647     -7030.8547     -34109.821      3.4815609     -54630.725    
     50300   2541.3587     -4480.3081     -21405.634     -46914.576      3.4680123     -54530.854    
     50400   2725.0374     -10538.295     -3067.1978     -23075.818      3.5424488     -54502.024    
     50500   2551.0024      9341.618      -6211.833      -3556.1607      3.5770699     -54316.475    
     50600   2859.4171      10642.796     -4230.0384      7422.9497      3.5856871     -54484.275    
     50700   2683.4893      13885.039      3210.6519      5743.71        3.572831      -54421.337    
     50800   2825.5072      11420.455      12696.03      -8142.5879      3.6576775     -54528.954    
     50900   2773.9123      4570.2907     -5651.2599      2520.6818      3.624004      -54578.999    
     51000   2724.4312     -7004.4158     -1126.9303      21933.484      3.6171852     -54631.552    
     51100   2576.9405      12341.487      31002.38       33888.365      3.6453382     -54597.691    
     51200   2620.6844      9019.4043      60393.221      33727.909      3.7426825     -54648.439    
     51300   2599.4949      37528.961      14243.246      9597.4814      3.6585343     -54640.452    
     51400   2648.2813      5862.8155      3404.7771     -1684.6311      3.6055214     -54650.566    
     51500   2904.8101     -865.49945      44637.576     -8440.6307      3.5459137     -54755.271    
     51600   2732.7784     -4037.3173      39415.091      5680.596       3.6141014     -54583.974    
     51700   2785.3671     -33144.106     -15023.245     -22621.906      3.4844165     -54445.079    
     51800   2640.7284     -54173.72       6958.5128      7987.6995      3.4227377     -54260.917    
     51900   2831.8816      32739.548      17434.118      14187.969      3.4985797     -54341.428    
     52000   2588.7706      21166.032      73515.669      16513.12       3.5194312     -54246.499    
     52100   2870.0463      13392.151      42093.909      7934.2785      3.5676469     -54482.283    
     52200   2642.6572      57413.189      28748.944      24979.083      3.6976701     -54464.482    
     52300   2680.5765      46925.748      20309.116      1990.1219      3.6413067     -54581.809    
     52400   2409.0292     -628.02442      31448.688     -350.8371       3.5484941     -54471.326    
     52500   2481.5468      117.11334     -31836.83      -29215.993      3.5926448     -54536.289    
     52600   2578.4271     -43270.157     -14694.163     -11544.597      3.5873451     -54551.634    
     52700   2535.4543     -21582.131     -23454.26      -27034.524      3.5432555     -54485.013    
     52800   2652.1141      24871.186      12899.624     -6536.6569      3.5781666     -54497.16     
     52900   2615.876      -30010.176     -28317.214     -8896.2394      3.3868969     -54439.685    
     53000   2891.917       15231.378      12100.515     -12181.965      3.4877066     -54492.593    
     53100   2872.8869     -9438.363       9857.7917      12447.049      3.5574545     -54363.906    
     53200   2758.6247     -3802.6941      4866.1879     -4823.3204      3.5397995     -54239.385    
     53300   3048.6698      27222.113      27092.776      1125.2181      3.6411143     -54420.963    
     53400   2782.5694      24078.968      23483.007     -26396.76       3.5992071     -54428.361    
     53500   2462.069      -20657.063      11568.021     -1270.3805      3.5081422     -54363.425    
     53600   2612.0075     -33340.787      5651.1288      7082.9312      3.537269      -54480.884    
     53700   2578.5422      24966.382     -9575.9965      35117.541      3.6705906     -54475.96     
     53800   2720.5283      13443.098      2703.4862      7383.7819      3.6991245     -54604.696    
     53900   2707.9445     -26538.129      20668.197      23600.462      3.7926386     -54672.029    
     54000   2681.4618     -39227.43      -4777.0056      2062.6324      3.6346089     -54749.231    
     54100   2534.0999      2232.7535      4034.5545     -25862.434      3.6541724     -54727.256    
     54200   2643.1226      16173.42      -26573.662     -4901.0029      3.7321573     -54794.568    
     54300   2503.8346      2800.0433     -44576.947      1354.0631      3.6758612     -54713.128    
     54400   2763.6665     -32301.461      1989.3418      29939.818      3.7774127     -54817.181    
     54500   2498.0217      1971.1257      23063.158      14132.551      3.8035389     -54637.013    
     54600   3156.6668      34156.567      21660.865      18577.078      3.8907554     -54935.253    
     54700   2927.7926      28513.95       18959.931     -10699.707      3.8035949     -54732.626    
     54800   3080.0383     -25887.452     -33041.231     -17006.482      3.735428      -54778.648    
     54900   2686.1422     -23370.31      -22500.082     -28508.363      3.6878924     -54572.184    
     55000   2676.356      -15993.187     -14008.502     -17085.092      3.6606783     -54638.486    
     55100   2810.7561     -21451.013      14676.382     -7795.0641      3.6847509     -54803.214    
     55200   2711.7504      21437.952      11588.922      24273.479      3.8024067     -54834.69     
     55300   2603.1331      1818.4705     -46197.787      6598.583       3.7935656     -54844.297    
     55400   2602.1577     -20602.228     -8592.3777      15394.775      3.8123328     -54871.838    
     55500   2436.566       15613.697     -8838.1488     -5252.4765      3.7354819     -54769.963    
     55600   2521.9866     -23128.069      6941.9151     -44044.291      3.7291188     -54777.861    
     55700   2474.2945     -18262.33      -25416.942     -15585.599      3.6715345     -54708.865    
     55800   2561.7961     -25510.073     -15237.355     -15442.296      3.6165141     -54720.825    
     55900   2733.1272      8248.0421      2823.1367     -16061.839      3.646141      -54799.166    
     56000   2724.6651     -8449.701       19614.998      6430.7849      3.5864754     -54782.114    
     56100   2704.0279      12584.83       18542.017      3151.4474      3.6581301     -54769.454    
     56200   2674.1251     -20590.493      20642.641      12111.794      3.6453015     -54749.651    
     56300   2756.8486     -20008.752     -27058.894     -11366.741      3.6138689     -54792.072    
     56400   2561.3578      14396.368      585.30657      34777.949      3.7159611     -54669.193    
     56500   2643.7321      5850.0412     -1168.3712      28323.336      3.6197314     -54651.993    
     56600   2646.1197      32369.391     -5360.6301     -11186.981      3.6551383     -54562.528    
     56700   2849.7763      3421.055      -23938.319     -4367.878       3.5865414     -54581.773    
     56800   2798.0099     -11050.212     -13598.512      6499.9836      3.5258372     -54512.233    
     56900   2536.8556     -2631.6259      24590.389      541.60864      3.49828       -54344.014    
     57000   2890.3997      28841.265     -5641.6937      12724.318      3.5178431     -54548.964    
     57100   2940.6243      14638.914     -20614.912     -26379.615      3.5045938     -54652.84     
     57200   2479.8123      2688.4188      49.385955      9012.0464      3.6259446     -54542.386    
     57300   2444.2685     -3228.5992     -4234.6647     -30741.534      3.6098576     -54598.683    
     57400   2418.6525      7079.4886      5196.009      -129.32613      3.6524666     -54603.24     
     57500   2562.38        1251.4347     -13225.93       2312.6009      3.7099869     -54694.517    
     57600   2517.1886     -46364.265     -5320.1629     -18399.496      3.6263521     -54673.869    
     57700   2490.8145     -16785.161     -6068.5121      3969.9874      3.6956683     -54665.446    
     57800   2450.2626      21252.597      23869.252     -19854.206      3.6582773     -54643.875    
     57900   2526.5385     -6559.8919      16123.751      21355.669      3.630826      -54664.174    
     58000   2764.4086     -2938.8918     -5757.7018     -8531.3842      3.6068484     -54717.044    
     58100   2927.0321      13584.098      27253.982      20837.557      3.7132998     -54707.159    
     58200   2572.0541      12003.373      24599.93       20393.193      3.6175786     -54469.771    
     58300   2780.6439      20139.506      18943.413      13900.283      3.6040872     -54586.57     
     58400   2896.0087      9868.7549      22308.593      7393.8903      3.6726272     -54702.687    
     58500   2352.1437      27024.227     -12201.64       34194.244      3.627483      -54502.547    
     58600   2474.5361      27005.487      13778.908     -2855.48        3.6693522     -54667.182    
     58700   2576.1109     -5786.9338      36965.462      11015.6        3.6844778     -54749.505    
     58800   2627.3272     -1762.8103      36737.475      15813.634      3.6823208     -54774.184    
     58900   2477.3036     -2172.3435      6404.8545      30726.268      3.6588493     -54678.369    
     59000   2284.6499     -19142.83       1934.5618      5014.2003      3.6093571     -54545.068    
     59100   2729.2627     -2054.6327      5191.7408      16168.044      3.7802794     -54752.843    
     59200   2564.3825      32740.463      3944.7644     -20432.236      3.7521617     -54663.422    
     59300   2825.4872     -18107.902     -17565.92      -32148.421      3.7078974     -54830.095    
     59400   2517.1469     -1533.0165     -6908.1567     -11495.796      3.7227837     -54688.901    
     59500   2526.4649      24162.995     -15931.115     -31551.67       3.6688333     -54695.924    
     59600   2538.7214      1401.312       21456.66      -27254.573      3.7188921     -54686.04     
     59700   2698.5927      26552.354     -7964.3817     -8100.5376      3.7508789     -54746.923    
     59800   2534.04        41171.547     -22166.995     -27496.802      3.7144629     -54634.441    
     59900   2555.6072      9041.6024      23920.897     -1459.834       3.697565      -54634.492    
     60000   2505.673       44273.349     -8234.639      -6461.7929      3.6918081     -54615.549    
     60100   2488.4092     -23845.073     -49220.894     -39555.143      3.5837364     -54606.517    
     60200   2533.8751     -15002.16      -37688.795     -41536.258      3.564286      -54618.995    
     60300   2610.7888     -489.57651     -27178.538     -21282.671      3.6063443     -54665.86     
     60400   2601.7037      16108.911      24489.298      4395.2148      3.6304022     -54662.262    
     60500   2685.978      -19452.277      5172.0157      16454.027      3.6136746     -54669.628    
     60600   2551.9418     -32568.934     -31964.335      15342.908      3.5590416     -54554.086    
     60700   2794.963      -9139.3894      685.52033     -1451.74        3.5269567     -54625.848    
     60800   2965.7794      33583.895      16568.86       10882.981      3.6362924     -54670.956    
     60900   2726.5154     -21325.301     -767.24056     -2991.8294      3.5629825     -54502.232    
     61000   2822.0715      8754.5565      21493         -7404.5732      3.5821582     -54520.539    
     61100   2789.573       11257.953      56976.487     -1655.724       3.6558741     -54529.797    
     61200   2622.0754      6607.806       36521.153     -16873.438      3.5714064     -54525.599    
     61300   2582.6088     -22042.84       13378.89       1528.0246      3.5184137     -54624.921    
     61400   2457.4663     -7244.5602      25516.166      18897.013      3.5958669     -54620.231    
     61500   2568.1314     -4920.5562      34123.937      34741.25       3.654252      -54691.743    
     61600   2523.113      -2645.81       -12924.251     -32214.766      3.5162906     -54633.587    
     61700   2612.8542     -1908.781      -6886.766      -5055.0533      3.574327      -54654.628    
     61800   2607.2118     -8356.6768      557.4406      -16333.419      3.5668174     -54646.644    
     61900   2727.781      -46738.035     -106.76403     -23492.485      3.5700806     -54717.82     
     62000   2821.1747      17213.994     -11606.686     -18236.411      3.6238433     -54815.154    
     62100   2578.4118      1325.8601      1156.9252      6699.5409      3.6593792     -54803.13     
     62200   2457.3226      1490.9363     -18641.858     -14439.652      3.5913792     -54832.237    
     62300   2457.0608      21580.756     -5757.6382     -3007.5612      3.7297347     -54882.996    
     62400   2470.6397      14677.709     -47.411495     -23816.762      3.7121754     -54887.96     
     62500   2519.3216      5673.561       16057.493      5856.5834      3.7004845     -54875.355    
     62600   2560.803      -5688.6155      22385.391      22173.969      3.6393227     -54824.447    
     62700   2526.8807      26259.085     -21795.071     -326.27793      3.588222      -54698.246    
     62800   2651.9123     -10804.817     -6442.8644      10063.67       3.5686506     -54697.527    
     62900   2309.3062     -12836.373      9763.7397      11006.22       3.5064554     -54475.8      
     63000   2771.4336      10384.934     -6871.872       23957.132      3.6298138     -54710.307    
     63100   2716.661       12891.666      67991.504      20265.454      3.6892023     -54675.236    
     63200   2562.8456     -12448.887      3744.7609      8923.7881      3.6224622     -54626.722    
     63300   2541.683       2660.306       18219.959      7421.5065      3.5968129     -54664.294    
     63400   2726.1498     -3003.1972      40794.29      -2991.8672      3.6445955     -54841.234    
     63500   2532.2735     -364.60753      2014.6776      8816.3126      3.6132609     -54823.359    
     63600   2384.2331      18127.548      37776.147      5605.7486      3.6212499     -54813.627    
     63700   2518.9576      38499.349      34841.713     -12919.85       3.6889508     -54882.609    
     63800   2591.8761      2351.9903      23066.115     -11588.789      3.6282682     -54883.82     
     63900   2582.2749     -14390.714     -11562.766     -34004.329      3.5989429     -54824.331    
     64000   2556.9038     -13913.566     -601.62833     -9454.5911      3.6159666     -54769.636    
     64100   2572.7815      4076.7577     -41056.626     -32896.695      3.5594489     -54743.393    
     64200   2479.7294     -9827.1112      392.54086     -34147.403      3.6054501     -54653.721    
     64300   2718.9276     -5616.0935      10897.131     -18799.269      3.6417678     -54730.957    
     64400   2626.968      -1681.4571      52161.275     -41973.108      3.6526644     -54642.809    
     64500   2445.6211     -20100.137     -16152.255     -13847.542      3.5607175     -54530.187    
     64600   2599.5449      1913.8292     -24018.077     -13162.434      3.6050617     -54637.114    
     64700   2692.1855      31731.314     -379.60812     -24183.975      3.6652161     -54762.543    
     64800   2602.853       47141.164      37396.489      4440.2018      3.6179251     -54800.728    
     64900   2479.6713      12844.926      24694.963     -5480.1673      3.5844886     -54844.913    
     65000   2561.8794     -826.17322      15626.944     -3960.585       3.5973137     -54932.883    
     65100   2480.6706      8931.7145     -4957.1027     -7078.6864      3.558734      -54878.627    
     65200   2374.1363     -32996.764     -10328.423     -27416.992      3.5364901     -54793.201    
     65300   2415.4186     -19036.502     -11711.032     -10122.109      3.5404785     -54756.219    
     65400   2432.322      -11993.559     -24618.42       10098.054      3.4620234     -54696.055    
     65500   2593.7282      18906.926      6889.3395     -19434.044      3.521047      -54725.327    
     65600   2553.9087     -7299.1769     -31103.514     -11255.822      3.4516828     -54665.891    
     65700   2766.9625      21019.909      17697.925      15102.119      3.5952845     -54782.382    
     65800   2405.3742      23932.823     -5029.0591      19023.112      3.4719593     -54585.865    
     65900   2394.3128      1948.3048     -17661.795     -5574.9687      3.4080658     -54576.835    
     66000   2425.3552     -10197.178     -15483.017     -5779.4233      3.4611885     -54576.756    
     66100   2515.4143      4846.0212     -6691.1529     -35050.459      3.4841598     -54574.784    
     66200   2516.7328     -21322.062     -13362.239     -23063.174      3.4053147     -54513.922    
     66300   2775.6104     -371.4812      -28622.876     -2579.1935      3.4117204     -54576.438    
     66400   2951.1129     -20553.209      28032.305      19719.278      3.4750311     -54571.112    
     66500   2794.9326     -7006.7323      2354.4533      12364.223      3.3673965     -54431.655    
     66600   3081.2198      23790.866     -35216.115      4017.1565      3.3683647     -54584.067    
     66700   2783.4433     -3332.9419     -11905.386      8657.6391      3.4406647     -54527.832    
     66800   2419.687      -14719.909     -17870.048     -8087.315       3.3931735     -54497.42     
     66900   2396.8232     -17190.672     -25047.87      -23280.63       3.3762511     -54530.423    
     67000   2459.4602      527.57467     -16701.713     -15048.449      3.4456691     -54576.464    
     67100   2493.1433      29842.005     -25215.553      1036.5784      3.4248129     -54604.173    
     67200   2513.7498      12152.671     -31943.155     -3439.5422      3.4650634     -54614.813    
     67300   2537.4988     -3344.9744     -10895.417     -21045.14       3.4305895     -54628.443    
     67400   2531.4945     -1709.0901      852.562        15012.626      3.5156923     -54621.994    
     67500   2535.7682      43049.8       -18333.492      14300.792      3.4989152     -54601.216    
     67600   2574.8259      31961.943     -16024.499     -15447.135      3.4661638     -54605.254    
     67700   2799.7295      7689.2421     -25447.746      23643.457      3.5547914     -54705.544    
     67800   2599.7208      15303.026     -977.42026      1777.7264      3.5197997     -54579.035    
     67900   2616.5664      9886.1673      5810.754       19555.569      3.5272335     -54551.812    
     68000   2469.7533      13964.759      23596.847      5198.9692      3.5205419     -54440.525    
     68100   2561.5272      10883.999     -1003.5483     -17453.545      3.4499645     -54470.357    
     68200   2618.485       18280.654     -31224.722     -4834.4605      3.5876185     -54512.573    
     68300   2698.2553      12702.66      -10106.703     -23058.105      3.4892197     -54622.013    
     68400   2603.3858      3937.8         1125.7997      2390.6713      3.4645435     -54671.253    
     68500   2611.7791     -20380.675      18771.015      32653.026      3.5121982     -54753.402    
     68600   2667.8068      35749.215      23225.465      25748.777      3.5772002     -54826.306    
     68700   2435.4764      28870.804      12818.863     -16542.425      3.51025       -54715.546    
     68800   2481.5656     -15567.49       7323.0553     -10696.077      3.5166061     -54744.853    
     68900   2407.0608      3685.3476     -8270.0934     -33682.666      3.5268961     -54697.313    
     69000   2604.746       15648.002      79.530616      17695.547      3.6519534     -54748.019    
     69100   2857.4749      19467.343      27781.27       1350.4044      3.5973471     -54768.129    
     69200   2610.8291     -8661.9199      25111.575     -3720.7157      3.5478678     -54523.265    
     69300   2689.4449      17033.708      13267.68       14677.489      3.5501416     -54518.409    
     69400   2744.7697      81167.596      26402.327      23147.094      3.5698297     -54558.84     
     69500   2630.2555      27748.136      31391.791      55532.676      3.6117746     -54534.174    
     69600   2530.5906      4157.5813     -767.80346     -35979.253      3.5018632     -54519.237    
     69700   2722.7852     -1530.718       584.53597      6796.5267      3.6081212     -54651.414    
     69800   2684.4116     -14250.147     -5738.3551     -19209.22       3.5308302     -54676.308    
     69900   2622.7995     -1386.9661     -2111.9123     -6989.8586      3.5779166     -54716.527    
     70000   2590.6118     -25159.241      33241.779      4119.4957      3.6271666     -54754.991    
     70100   2402.736      -3777.7865      3070.5466      15992.508      3.6599143     -54691.886    
     70200   2410.578      -9587.4233     -12710.937     -1513.8089      3.6119722     -54700.119    
     70300   2437.928      -10236.684     -29795.169     -2246.6338      3.5885079     -54682.922    
     70400   2445.3568     -30359.9       -39684.984     -28379.106      3.5115575     -54618.417    
     70500   2704.4488     -32704.109     -39731.486     -46600.804      3.4604743     -54634.372    
     70600   2524.4489      13140.788     -817.69882     -6016.0729      3.4467803     -54431.143    
     70700   2670.3936      38070.775      51333.307      3691.766       3.5541994     -54482.965    
     70800   2502.9089      34946.616      2097.6322      13510.465      3.5504536     -54408.428    
     70900   2631.0684      13820.692      22604.947      1338.99        3.6071409     -54505.317    
     71000   2568.5158     -24591.421     -2484.2761     -37411.093      3.5005072     -54514.411    
     71100   2569.4707     -14627.717     -11340.968     -14427.926      3.5263608     -54567.378    
     71200   2451.7846     -31089.507      18609.045     -9084.7101      3.5911451     -54567.103    
     71300   2310.8596      17588.199      12623         -15517.741      3.5156494     -54555.77     
     71400   2276.926      -4638.1367      5815.0362      9626.1055      3.4961185     -54577.295    
     71500   2479.6203     -13170.631      18793.158      24802.341      3.6128802     -54702.837    
     71600   2336.1874      2524.4724     -1750.414      -17788.908      3.5449213     -54630.727    
     71700   2416.8832     -19402.795     -16353.582      5474.3384      3.6018552     -54678.383    
     71800   2472.6881      4623.5594      20672.025      139.98565      3.6498285     -54661.135    
     71900   2636.3967     -14867.399      5440.758      -50482.677      3.5044846     -54682.904    
     72000   2624.7507     -29285.96      -16165.734     -23133.82       3.5297745     -54643.468    
     72100   2515.8338     -42913.949     -42697.506     -28364.619      3.481254      -54606.129    
     72200   2623.6915      1540.3969     -5282.8216     -1400.5008      3.6369285     -54715.422    
     72300   2270.8417      15635.346     -7919.2349      6301.1701      3.5327529     -54581.324    
     72400   2147.767       17627.353      8081.6406      7731.2441      3.4984572     -54545.157    
     72500   2358.938      -17727.784     -13301.055     -8102.9398      3.5305948     -54650.303    
     72600   2459.312      -55990.582     -51081.506     -50454.871      3.4780224     -54638.964    
     72700   2331.0159      8200.6918     -840.03507     -28885.169      3.5339447     -54453.98     
     72800   2473.1966     -6663.8199     -16128.953     -39174.023      3.564061      -54453.771    
     72900   2417.9148     -39875.847     -43888.67      -35185.469      3.5046394     -54409.82     
     73000   2514.6071      8208.735      -12962.447     -3874.8255      3.5656084     -54495.928    
     73100   2619.1467      22327.627      9920.6442     -18565.322      3.5830625     -54605.308    
     73200   2372.7747      14296.609      26088.097     -23184.398      3.5630294     -54539.556    
     73300   2511.6535      43677.115      36546.376      31680.25       3.6838779     -54668.812    
     73400   2450.5003     -2627.2868      9283.5037      26284.103      3.6011905     -54652.525    
     73500   2446.6598     -7010.8357     -3892.1052     -46807.952      3.5483711     -54641.536    
     73600   2772.7257      7403.621       12533.655     -5957.9899      3.6053926     -54793.676    
     73700   2677.4861      22602.052     -1565.8004     -13412.918      3.5284809     -54725.14     
     73800   2605.4634      13123.243     -9068.7419      8311.3043      3.5144961     -54680.367    
     73900   2568.8189      10918.493     -23535.946     -2101.6543      3.5016439     -54679.695    
     74000   2421.7478     -15654.461      20651.673     -41966.603      3.526864      -54652.261    
     74100   2345.0001      8057.8497     -925.66428     -21661.283      3.456623      -54643.868    
     74200   2295.6105     -7398.2765     -19342.081     -13563.281      3.3855977     -54628.051    
     74300   2257.8735     -3249.1209     -30815.466      18801.199      3.4671859     -54580.708    
     74400   2540.7758      12700.764     -38076.16      -15415.41       3.4162103     -54684.513    
     74500   2470.7215      32605.203     -15464.586     -27227.043      3.488379      -54587.61     
     74600   2509.4505      22893.662     -27804.324     -5976.0967      3.5361826     -54559.399    
     74700   2635.2108      6279.89       -7802.8042     -26257.505      3.4551291     -54577.695    
     74800   2708.5384      8985.1065     -32427.572     -1035.3882      3.5450191     -54584.582    
     74900   2599.1533     -8426.9134     -50758.81      -26077.232      3.5180208     -54563.805    
     75000   2364.2217     -16814.367     -30691.289     -8344.837       3.5344058     -54557.723    
     75100   2367.4759      20143.641      13553.673      7147.098       3.6219948     -54666.477    
     75200   2458.9158     -20377.646     -12504.468     -19908.868      3.5483494     -54752.696    
     75300   2397.8056     -17056.729      12593.936     -8144.7035      3.6196644     -54738.074    
     75400   2357.342      -30634.559     -225.82499     -15751.234      3.6002706     -54726.277    
     75500   2450.7834     -36658.691     -14841.709     -28820.071      3.5278069     -54760.689    
     75600   2576.8976     -32945.209     -21938.502     -44534.659      3.554779      -54780.781    
     75700   2525.5969     -30691.548      16606.553     -18535.479      3.6622007     -54699.457    
     75800   2434.5122     -22774.794     -42521.984     -7204.6954      3.5699822     -54583.045    
     75900   2746.9387     -11945.399     -23349.214     -4628.3324      3.5887801     -54670.073    
     76000   2715.305      -42319.46      -7213.8013     -6173.5306      3.5482825     -54599.004    
     76100   2449.7342     -38494.101     -13146.013     -24976.943      3.4400043     -54476.167    
     76200   2655.3316     -17345.635      17030.166     -27788.027      3.6280514     -54661.961    
     76300   2504.6722     -7367.4329     -19694.116     -23392.542      3.6400603     -54724.19     
     76400   2408.5875      5281.3462      43295.671      25585.282      3.6913084     -54742.035    
     76500   2414.845       1893.5187     -22326.93       21516.299      3.6106521     -54766.87     
     76600   2300.1258     -10050.172     -8375.6182      33221.68       3.6172699     -54705.988    
     76700   2358.3803     -23343.87      -16206.24      -24482.831      3.5589638     -54706.95     
     76800   2513.0108     -11571.702     -27891.455     -18597.967      3.5910578     -54748.551    
     76900   2415.2364      12199.26      -26291.927     -13014.047      3.5871933     -54633.635    
     77000   2458.8821      10982.457     -16773.477     -11154.055      3.6109648     -54586.137    
     77100   2767.9923      12516.194     -4780.4614     -8708.1919      3.5736482     -54667.549    
     77200   2799.4319     -14406.051      20908.854      12369.29       3.6471913     -54648.477    
     77300   2618.9771     -28176.447      13924.014     -18470.111      3.6381261     -54585.94     
     77400   2547.8962      9911.4543     -23289.393     -9677.5068      3.6691712     -54709.505    
     77500   2470.5225     -23226.326     -23823.04       10512.019      3.6246239     -54780.635    
     77600   2301.675       1025.247      -19688.584     -20405.541      3.6024356     -54738.476    
     77700   2408.4953      22285.513      32429.607      8376.9645      3.6408105     -54813.597    
     77800   2273.9143      8472.6058      7850.5513     -779.74213      3.4952767     -54744.741    
     77900   2404.5472      12245.306      14452.599     -8718.1479      3.5258515     -54782.986    
     78000   2670.3266     -18231.658     -7176.4137      6879.363       3.6038571     -54866.95     
     78100   2504.074      -50774.429     -13441.801      6047.4839      3.5943309     -54715.724    
     78200   2360.1183      3768.4739      3141.2768      21292.131      3.5623216     -54570.208    
     78300   2625.1458     -7746.5078      7883.2373     -10476.414      3.579393      -54692.634    
     78400   2784.4591     -10916.573      25011.902      1613.5753      3.6048875     -54795.039    
     78500   2391.4212     -12578.692      11324.006      27232.483      3.5856154     -54660.754    
     78600   2233.9194     -10142.922      2296.2422      9639.6542      3.655969      -54693.573    
     78700   2489.6991      17282.779      10529.76       4114.8854      3.7275549     -54936.615    
     78800   2297.214       17116.621      26543.909     -1767.8906      3.7330953     -54859.693    
     78900   2352.8244      8974.3208      32883.88       14319.231      3.7247448     -54887.474    
     79000   2526.6741      7691.1062     -15354.559      5989.2101      3.6762558     -54952.026    
     79100   2391.1336     -15171.661      16094.019     -13166.938      3.7092069     -54839.764    
     79200   2261.1383     -14041.654     -9441.9151     -19949.51       3.6835254     -54714.797    
     79300   2617.1955     -4305.8982     -4690.2392      35472.856      3.7612974     -54857.205    
     79400   2379.0706      15197.372      43624.38       22807.981      3.7305226     -54684.39     
     79500   2548.2262     -32365.296      14189.212     -3546.7192      3.71378       -54754.078    
     79600   2282.136      -11185.616     -29247.073     -22126.12       3.6065525     -54592.204    
     79700   2619.2376     -49884.095      17401.669     -451.13386      3.6748906     -54750.207    
     79800   2546.9648     -16103.088      33123          10291.494      3.694405      -54703.539    
     79900   2396.362       15265.336      10109.74      -9469.4937      3.7185524     -54622.092    
     80000   2515.3462     -26405.458      15067.583      21398.881      3.6671846     -54693.906    
     80100   2463.8467     -40798.588     -26086.409     -7149.3254      3.6047796     -54681.429    
     80200   2287.127      -22718.44       15937.191     -19830.721      3.5771478     -54598.81     
     80300   2392.1474     -747.19378     -20459.086      6361.8673      3.6496023     -54643.142    
     80400   2272.5781      9712.0849      16405.667      24278.46       3.6859062     -54535.749    
     80500   2712.7508     -3835.3007     -9014.4228     -13001.286      3.6378625     -54745.834    
     80600   2744.0556      6618.4421     -236.4473      -10149.07       3.6712219     -54767.761    
     80700   2406.8828      25928.925      37062.471      9496.7441      3.6465387     -54647.004    
     80800   2316.5751      26633.329      40611.839      15111.479      3.6779684     -54691.035    
     80900   2349.8083      12726.533      13772.758      10059.001      3.6602188     -54785.269    
     81000   2205.0873      107.49597      28443.532      30369.512      3.6935962     -54737.469    
     81100   2480.8463     -10233.02       4097.652      -13932.351      3.7302489     -54885.797    
     81200   2494.1053     -9477.3221     -2349.9892      5056.4622      3.6898743     -54873.708    
     81300   2484.1737      908.84422      18348.184     -30644.857      3.6520905     -54826.373    
     81400   2608.4176      11343.243      28172.195      14082.928      3.6771699     -54773.392    
     81500   3014.613       4228.7373      18698.502     -3334.6851      3.6119646     -54871.765    
     81600   2676.1272     -23260.06       16850.819      16054.317      3.5765297     -54660.146    
     81700   2767.7898     -22021.54      -5499.8263     -13239.619      3.5010459     -54758.741    
     81800   2448.1867     -2733.3774      6559.4469     -14308.051      3.4321092     -54637.439    
     81900   2532.8094     -4077.713      -18471.857      16527.496      3.4949545     -54747.387    
     82000   2211.6233     -5208.5453     -6246.6713      31389.968      3.5646702     -54625.586    
     82100   2392.9562     -3267.0899     -5031.3472     -13448.333      3.5081068     -54726.602    
     82200   2440.8369      17485.024     -16618.059     -10260.518      3.5240457     -54740.083    
     82300   2601.4219     -15745.752      18155.619     -23714.945      3.6149998     -54828.29     
     82400   2279.7677     -11949.234     -31899.476     -21123.843      3.473781      -54686.045    
     82500   2362.5026      4932.9609      8404.0307      25688.947      3.6817914     -54840.335    
     82600   2106.986      -8031.4406      12538.682     -9754.1266      3.6182873     -54829.202    
     82700   2170.7104      2627.473      -26385.47      -10917.288      3.5828323     -54893        
     82800   2182.9447      19562.008     -13094.633     -538.67242      3.6243363     -54869.695    
     82900   2492.9737      4562.077       4058.5714     -6058.7769      3.6308956     -54970.572    
     83000   2384.7697     -12941.385     -18103.41       1171.1114      3.5363323     -54837.106    
     83100   2337.2675     -33569.662     -39890.432      18932.298      3.5506541     -54751.028    
     83200   2579.4155     -28347.853     -28355.821     -43029.97       3.5689835     -54849.767    
     83300   2485.317      -12795.827     -5859.1571      201.66037      3.6456738     -54796.053    
     83400   2429.5292     -4684.7201      3118.6071      8350.6021      3.5206169     -54780.855    
     83500   2417.0117      12418.478      24425.611      11978.79       3.6178456     -54802.269    
     83600   2796.5928      26967.825      47068.867      40883.427      3.7830826     -55020.375    
     83700   2552.7047      621.60428      11279.313     -4803.5024      3.6721053     -54960.884    
     83800   2214.8306      3959.4387      13449.372     -10525.329      3.704993      -54898.27     
     83900   2184.264      -21428.878     -26426.523     -25320.229      3.580443      -54930.817    
     84000   2225.9814      12872.273      11939.546     -10965.092      3.6265904     -54933.531    
     84100   2310.7963     -17698.875      21211.947     -10653.15       3.6255164     -54920.472    
     84200   2389.0591     -5856.6764     -28073.436      3524.6021      3.5972139     -54872.755    
     84300   2383.1336     -6871.8491     -16602.282      27694.634      3.7147596     -54803.028    
     84400   2423.9346     -13226.047     -14154.561     -21197.743      3.7206213     -54794.742    
     84500   2441.8189     -31352.131     -41674.785     -19891.946      3.7127443     -54809.008    
     84600   2351.3114     -5545.8016      9546.8524      24308.794      3.7041783     -54764.494    
     84700   2436.8951      4773.9946      33439.85       65140.063      3.7655628     -54840.998    
     84800   2535.5451     -12638.438     -21533.742      23715.01       3.7344489     -54947.919    
     84900   2436.2354     -43691.413      3297.0246      450.26634      3.6287232     -54965.598    
     85000   2128.031      -16652.612      19299.768      19186.128      3.6760542     -54879.977    
     85100   2417.992      -14615.389      24396.85       9926.9986      3.7196645     -55084.331    
     85200   2426.3732     -25690.779      11597.794     -27050.414      3.745074      -55087.68     
     85300   2327.6308     -32937.293     -22305.11      -10333.999      3.7225755     -54948.922    
     85400   2372.661       7689.2413      5758.9793      34061.912      3.7700532     -54824.899    
     85500   2246.9031     -20576.842     -13633.201      19409.615      3.6289155     -54693.887    
     85600   2466.2707     -27387.542      3058.3046     -7523.2491      3.6843054     -54747.09     
     85700   2297.2458      17159.058      15548.872      1589.6598      3.7399193     -54616.891    
     85800   2648.4148      26893.67       41393.797     -13830.613      3.7176067     -54800.033    
     85900   2732.7281     -18328.485      7938.7193      17392.714      3.6642481     -54907.175    
     86000   2625.2264      8987.3897      6915.0334      15534.171      3.7236448     -54961.366    
     86100   2407.3745     -11408.768      16042.534      3807.1261      3.6838831     -54911.601    
     86200   2432.357       35677.461      29667.325     -2748.6269      3.7782034     -54966.372    
     86300   2323.1858      25645.331      8463.3391      34052.264      3.7762        -54913.855    
     86400   2406.0271      1076.2085     -9297.5862      2203.8205      3.7238405     -54940.601    
     86500   2504.4111     -25214.963     -29739.843     -8162.1886      3.7493432     -54967.246    
     86600   2512.9332     -23457.838      10227.78      -24520.835      3.7744757     -54938.612    
     86700   2615.2541     -14973.957      15077.94       12061.035      3.7499858     -54950.689    
     86800   2359.2603      18275.525      13834.236     -11522.112      3.7069293     -54763.97     
     86900   2488.5754      1530.3066      32377.019     -12164.275      3.7587062     -54790.209    
     87000   2608.3964      13625.389      8242.289      -25686.391      3.7129298     -54813.069    
     87100   2518.7715      27785.934      850.89357      11992.958      3.7162704     -54733.734    
     87200   2552.242      -24519.44       3466.6244      16989.691      3.648203      -54763.099    
     87300   2592.7174      15145.939     -11548.025     -25909.794      3.6479922     -54834.09     
     87400   2363.4071     -6291.8701     -37347.009     -2110.5739      3.6006145     -54797.685    
     87500   2368.004       12551.696     -13836.386     -3801.6173      3.681246      -54906.109    
     87600   2425.3268     -27188.997      17840.519      6670.3725      3.66043       -54999.475    
     87700   2233.1617     -13529.766      353.01295     -6436.1074      3.6892354     -54919.155    
     87800   2277.6808     -14648.623     -2363.7016      6683.2452      3.6767226     -54955.549    
     87900   2357.2706     -12581.078     -37144.804     -12355.84       3.6126339     -54998.952    
     88000   2238.4555     -821.3824      -1908.7485      9378.7512      3.6852314     -54915.399    
     88100   2670.3467     -14238.144     -973.0247      -30341.825      3.6870339     -55143.713    
     88200   2485.6113      26914.205      13051.225      37317.072      3.7962151     -55007.174    
     88300   2499.2776     -6820.9674      52791.804      22502.859      3.7558139     -54931.851    
     88400   2463.4373      311.8537       3159.1525      31641.052      3.6569081     -54817.821    
     88500   2480.0851      26581.33       17050.708      3135.4508      3.6962537     -54768.093    
     88600   2621.7939     -13265.408     -23396.712     -29468.285      3.7217829     -54837.884    
     88700   2464.8906     -23554.132     -18613.275      26340.379      3.730836      -54792.809    
     88800   2434.1715     -18731.388     -15745.565      23025.974      3.6841697     -54829.684    
     88900   2457.5816      25036.702     -7365.1971      6117.0472      3.7464347     -54899.331    
     89000   2364.2823      48100.903      16750.377      41329.149      3.8080804     -54918.314    
     89100   2080.4846      43465.075      32128.971      27427.286      3.7522518     -54837.247    
     89200   2352.1801      1073.9139      5627.4769      26930.699      3.7357093     -55046.49     
     89300   2262.8091      18549.982     -13402.161     -10693.374      3.7243723     -55038.01     
     89400   2243.4551      31265.927      7071.8935     -1295.4602      3.7341912     -55009.633    
     89500   2328.3928     -17182.902     -17672.975     -14071.231      3.6685544     -54985.773    
     89600   2196.6957     -7616.0576     -3457.5512      5778.4398      3.6956854     -54799.102    
     89700   2367.2134     -1009.4237      17483.113     -6936.5703      3.6983278     -54807.946    
     89800   2329.6323      8672.6846     -2212.6322     -22419.386      3.651322      -54729.22     
     89900   2588.4375     -23904.317      6252.6304      20991.166      3.6922561     -54830.375    
     90000   2664.516       21207.914     -23265.744      1148.6208      3.6769641     -54867.274    
     90100   2498.5209     -6645.6753     -31229.342     -31078.541      3.5701084     -54809.358    
     90200   2456.4492      3224.1717     -32163.417      9053.2793      3.5830533     -54866.59     
     90300   2239.72       -27073.989     -6307.8784     -10504.527      3.6413435     -54831.856    
     90400   2273.3629      6264.1303     -11406.881     -19250.169      3.6493692     -54887.413    
     90500   2314.191       27031.421      11431.987      31766.144      3.7368732     -54906.509    
     90600   2398.0394     -301.33863      22892.955      15051.977      3.7390091     -54936.619    
     90700   2431.8077      15130.151      23129.29      -22111.569      3.7115245     -54941.208    
     90800   2352.7772     -15474.263     -24203.753     -24490.53       3.670766      -54863.716    
     90900   2346.3911      859.3817       18700.768      48416.864      3.7750631     -54833.302    
     91000   2468.6326     -1325.4806      31795.118     -7503.3414      3.7832988     -54895.851    
     91100   2361.3411      27550.321     -10489.523     -26074.697      3.7412365     -54839.328    
     91200   2532.0705     -14843.121     -38416.569     -15130.713      3.6887163     -54936.84     
     91300   2377.0365      10489.346     -44646.235     -25199.629      3.5821145     -54841.527    
     91400   2406.1526      9449.7395      2963.9569     -9158.0111      3.6521087     -54864.687    
     91500   2508.4848     -7409.3179     -18439.751     -1557.4133      3.691621      -54935.009    
     91600   2490.973       17452.924      15817.291      4991.1392      3.7442931     -54931.422    
     91700   2566.4764      10732.762      42242.014      14000.453      3.7838345     -55005.163    
     91800   2283.821       27390.494      23306.814      7467.2201      3.7820482     -54921.342    
     91900   1893.3476     -3996.1034     -43982.181     -12895.565      3.666439      -54815.377    
     92000   2168.1823     -6068.6074     -24397.1        9762.3345      3.8149247     -55057.419    
     92100   2258.2426      33742.375      40165.876     -8596.4921      3.8303583     -55123.565    
     92200   2122.5697      2884.5118      19819.77      -19102.947      3.7521374     -55044.413    
     92300   2124.7024     -2260.7222     -3715.8781     -16568.593      3.6952238     -55008.297    
     92400   2280.9188     -17745.033     -9846.563      -17697.151      3.6961182     -55049.445    
     92500   2331.5296      11770.417      36572.786      10893.247      3.772751      -55042.058    
     92600   2321.8562     -28299.518     -11651.874      20646.386      3.6829487     -55006.605    
     92700   2348.0401     -16123.042      556.84079     -30557.625      3.7393046     -54978.223    
     92800   2257.8441     -26740.951     -13869.756     -28595.122      3.6583396     -54884.833    
     92900   2369.8396     -40171.824     -55674.547     -23944.642      3.6565295     -54903.095    
     93000   2356.6629      9234.9629     -24740.317     -37044.474      3.6645236     -54860.577    
     93100   2382.1395      7093.8963     -32706.214     -19575.524      3.6607534     -54873.746    
     93200   2362.844      -17288.74      -19483.269     -37372.98       3.6716873     -54855.954    
     93300   2522.6615     -22273.295     -15856.706     -2720.2492      3.7451986     -54958.771    
     93400   2256.031      -21005.271     -40282.662     -26082.95       3.7254368     -54879.371    
     93500   2243.1092     -36438.793     -40577.272     -51324.43       3.6532384     -54958.729    
     93600   2117.3452     -48256.668     -35859.692     -23652.556      3.6510701     -54945.317    
     93700   2164.275      -41199.221     -32550.561     -10844.695      3.7136494     -54979.112    
     93800   2341.6491     -13961.309     -35808.359     -25575.6        3.7333886     -55037.974    
     93900   2409.0871      19929.853     -11172.811     -13072.488      3.789568      -55000.94     
     94000   2402.5399      26097.849     -426.7118      -6075.7664      3.7702783     -54918.005    
     94100   2468.6363      54434.839     -1771.9575     -18777.379      3.7683747     -54909.726    
     94200   2522.7721      12833.818     -12784.086     -7603.3347      3.7575559     -54929.715    
     94300   2632.67        94.839734     -5561.6222     -26244.286      3.8272822     -55007.195    
     94400   2482.0854     -16784.713     -26403.35      -39314.33       3.7392914     -54966.871    
     94500   2306.8209      10551.874     -43981.754     -14785.638      3.690521      -54928.438    
     94600   2376.1989      31641.02       22253.313     -10120.642      3.7493737     -55008.525    
     94700   2315.1059      39257.417     -16494.378      19993.655      3.8112614     -54976.709    
     94800   2272.7753      21390.902     -29023.58      -24792.096      3.7449441     -54944.314    
     94900   2302.7329      32612.272      3285.5159     -17011.778      3.8252879     -54941.806    
     95000   2384.3248      25587.477      21967.373     -5214.2726      3.8304835     -54928.853    
     95100   2447.6974      21843.183     -24728.834     -5786.289       3.7174128     -54874.467    
     95200   2552.4016      18296.36      -12235.429     -25520.02       3.675989      -54779.421    
     95300   2435.7772      27866.024      44049.373      3513.5779      3.7520172     -54629.089    
     95400   2740.482      -4317.6913     -52284.247     -21578.504      3.6587787     -54798.267    
     95500   2484.5369     -20515.425     -22933.571     -28477.91       3.6297415     -54730.392    
     95600   2284.6879      1827.0777     -48147.305     -50908.261      3.6610249     -54711.249    
     95700   2377.3944      7852.2698     -6950.3127      6445.1921      3.7851272     -54828.927    
     95800   2440.2888     -4542.8821      1887.7114     -4072.5887      3.7525775     -54915.125    
     95900   2352.0103      32194.744      18251.728      4853.1224      3.8576108     -54923.619    
     96000   2292.9162      6578.5465      29177.358      6403.125       3.8350095     -54950.935    
     96100   2386.1475     -3887.7976      37558.501      7352.1538      3.8317422     -55065.138    
     96200   2277.9476     -8925.5281      42399.397     -11408.519      3.8091039     -55035.147    
     96300   2312.0257     -26970.524      30687.336     -14366.769      3.8545353     -55037.483    
     96400   2113.2054     -22913.359      23520.241     -21185.013      3.7772951     -54872.175    
     96500   2455.4189      14341.388      24015.789     -31085.472      3.844529      -54974.459    
     96600   2334.214      -17030.717      9027.5427     -29278.012      3.744158      -54818.481    
     96700   2263.3849     -45044.659     -7418.9504     -23247.655      3.7128014     -54733.173    
     96800   2511.3909      11717.385     -20409.344     -3388.761       3.7531513     -54870.885    
     96900   2356.1411     -22696.933     -5908.2672      5916.0282      3.7729711     -54811.468    
     97000   2214.4608     -13293.474      9366.1764      10206.641      3.7568696     -54768.848    
     97100   2377.0947     -17942.92       17154.232     -23436.602      3.7970549     -54911.176    
     97200   2326.4348     -17389.829     -1323.1657     -8461.4828      3.7875396     -54960.336    
     97300   2231.5294     -11126.554      24933.052      25265.577      3.8494898     -54957.402    
     97400   2078.4059      22048.764     -12651.468     -11072.794      3.7940202     -54896.153    
     97500   2186.5685      2618.5239     -4522.176      -2689.2861      3.764309      -54920.122    
     97600   2268.027      -14871.596      1246.525       976.50705      3.7461033     -54894.127    
     97700   2331.948      -32962.153     -17639.808      15081.538      3.689509      -54838.226    
     97800   2361.0554      44004.827      23778.181      26504.384      3.7344225     -54784.291    
     97900   2520.2131      9482.2194      9870.7999      7842.0641      3.7147763     -54840.495    
     98000   2217.2441     -23611.124     -30264.519      29237.277      3.6624503     -54680.783    
     98100   2354.3108      25655.485      4038.6471     -8096.6657      3.7368718     -54787.293    
     98200   2565.2164      41754.293      19963.118     -7997.3412      3.8355718     -54941.378    
     98300   2571.2378     -23200.663     -24821.047     -23942.426      3.6709568     -55014.525    
     98400   2439.6516     -12989.389      18008.807     -21026.112      3.7395412     -55012.749    
     98500   2189.7766     -3917.6443      25326.912      18987.717      3.783172      -54926.587    
     98600   2067.8999     -30305.407     -12527.485     -14924.29       3.668674      -54866.407    
     98700   2310.6593     -33474.267     -15593.394     -34664.226      3.6410332     -54978.281    
     98800   2148.2735     -7145.3497     -24112.634     -23038.696      3.6418031     -54851.876    
     98900   2184.612       4832.6855      20824.392     -45831.805      3.6496502     -54825.637    
     99000   2215.1306     -32643.83      -5117.741       2051.9702      3.7018021     -54819.944    
     99100   2101.0662     -26231.505      23465.708     -24327.741      3.6314914     -54721.628    
     99200   2211.6557      23633.166     -1456.0512     -24604.634      3.6438085     -54748.542    
     99300   2241.8113     -30000.654     -4393.0394     -20852.857      3.6087289     -54730.3      
     99400   2325.6966     -57654.878     -27675.603     -11376.979      3.6066697     -54759.798    
     99500   2242.6754     -45272.107     -40401.302      5448.4913      3.6239757     -54707.076    
     99600   2175.2587      2409.442      -7376.6298     -20356.965      3.6900723     -54660.824    
     99700   2756.2978     -18199.655     -6893.4607      6948.477       3.70823       -55000.238    
     99800   2534.7224      10446.712      4249.9988      7099.028       3.769574      -55024.773    
     99900   2284.1564      11511.246     -4221.3823      4802.1561      3.7121158     -55001.529    
    100000   2096.6341     -24827.846     -9402.8157     -23506.284      3.6393778     -54933.309    
    100100   2346.0833      14009.751      22853.184     -2442.5723      3.7095396     -55065.474    
    100200   2152.4214      38351.767      56981.212      30705.353      3.7234684     -54934.672    
    100300   2327.5516      22633.634      49659.837      71534.793      3.800007      -54987.569    
    100400   2477.3442      20946.977      31027.004      2784.3275      3.7424627     -55000.648    
    100500   2214.6863      8962.4892     -6467.9265     -16964.282      3.6895367     -54813.062    
    100600   2410.5813     -5588.133       1994.6305     -11651.348      3.7032909     -54891.926    
    100700   2542.5012     -30318.575     -4656.8855     -40923.392      3.7033989     -54963.329    
    100800   2351.1772      16357.038     -6634.6631     -18474.155      3.6811428     -54877.93     
    100900   2414.8483      21727.245     -14269.811     -2746.0476      3.7561311     -54929.755    
    101000   2149.0467      17965.804     -6321.9969     -1557.7769      3.6723296     -54833.735    
    101100   2375.0408     -1803.2211     -3191.8598      20307.966      3.7461692     -55019.346    
    101200   2217.6699      2598.3136      4398.0916      9761.2814      3.698298      -54995.239    
    101300   2132.3601     -1394.6647      31027.897      11276.166      3.7430615     -54991.564    
    101400   2207.677       38846.442      27477.705      20348.469      3.7856746     -55040.738    
    101500   2267.8072      938.96704     -25851.072     -3535.7902      3.7233456     -55038.631    
    101600   2279.9109     -13316.606      5991.1084     -19883.496      3.7313806     -54958.867    
    101700   2506.4421     -8781.125      -10650.127     -2725.9632      3.6840659     -54991.833    
    101800   2574.2021     -10808.429     -18466.465     -10430.227      3.7100372     -54983.586    
    101900   2281.483      -8934.7042     -44317.023     -17706.539      3.6443752     -54821.9      
    102000   2107.6154      2564.2267     -17978.747      19925.246      3.7118511     -54745.43     
    102100   2311.7314      19176.042     -4311.341      -5133.4978      3.6972107     -54870.837    
    102200   2277.0478     -2487.1969     -10251.475     -3167.0158      3.6995845     -54835.815    
    102300   2348.4473     -19627.26      -19047.847     -30892.913      3.6616997     -54851.062    
    102400   2435.0813     -7088.5879      16913.064      9240.504       3.6863312     -54855.409    
    102500   2685.7546     -1852.9646     -5141.8095      32343.51       3.6973669     -54923.427    
    102600   2265.6815     -29916.616     -36700.616     -2045.1299      3.5248848     -54617.574    
    102700   2527.2322      6869.8446     -12721.33       785.3437       3.6239014     -54700.433    
    102800   2445.3841     -13939.219     -29545.438     -151.78183      3.6300069     -54687.371    
    102900   2485.2447     -34415.422     -18986.799     -6507.4882      3.683402      -54826.45     
    103000   2556.6545     -45.352359     -2777.8121      18645.431      3.6888771     -54966.173    
    103100   2205.2089     -20492.954      1695.2829     -8696.9598      3.6377901     -54828.461    
    103200   2501.4094     -18611.516     -5130.2422     -17718.862      3.7081076     -55012.582    
    103300   2331.2622      31150.158      24816.847      7539.6799      3.7333114     -54956.099    
    103400   2334.409       48136.334      19710.061      58001.602      3.8169674     -54992.269    
    103500   2038.9803      12035.61      -26246.033      37066.745      3.7083638     -54878.57     
    103600   2380.6954     -38750.081      17707.155      24068.536      3.673385      -55123.789    
    103700   2040.6055     -10683.669      17964.715     -769.83547      3.6965738     -54991.516    
    103800   2172.4212     -32204.189     -17497.185      23017.755      3.7382469     -55087.194    
    103900   2001.5511      6852.1899     -18262.444     -4347.5965      3.7051934     -54976.962    
    104000   2371.3057     -19176.521     -34462.516     -1587.7286      3.6924492     -55053.414    
    104100   2398.6425     -9618.8434     -12821.245      8474.3793      3.7367575     -54945.025    
    104200   2501.9659     -9909.7993      28848.339      12968.67       3.7535618     -54959.174    
    104300   2643.2518      13447.996      28577.411      35948.322      3.7483024     -55041.619    
    104400   2406.5942      59895.17       4597.1248      45816.454      3.7375252     -54923.048    
    104500   2444.9443      36531.979     -9775.1772     -2441.2128      3.7063338     -54983.559    
    104600   2355.3151      3830.1718     -18398.245      3752.8505      3.7140448     -54980.356    
    104700   2309.4242     -12460.173     -25360.85       10515.136      3.7891325     -55021.148    
    104800   2357.0789     -62433.173     -51769.218     -25020.589      3.687366      -55126.976    
    104900   2113.8103     -12494.118     -8620.2305      5535.3648      3.7420749     -55047.691    
    105000   2323.4245      32918.317     -10041.699     -11580.869      3.7503964     -55189.152    
    105100   2090.3671     -4953.2635      3250.7436      17299.581      3.7193599     -55061.721    
    105200   2289.025       2106.9017      10970.969      27174.892      3.7149741     -55102.824    
    105300   2544.8566      11544.083     -2581.4489      10436.594      3.7307048     -55089.769    
    105400   2376.9726      24929.231     -8751.3988      5187.4734      3.72923       -54930.923    
    105500   2386.5665     -6029.8785      3756.0385      9944.1736      3.6051147     -54926.572    
    105600   2474.1184      13035.759      4230.4332     -16888.152      3.6662254     -54998.21     
    105700   2323.7811      17224.175     -2157.2652     -11322.346      3.6530725     -54967.361    
    105800   2271.3309      11234.923      21389.765      9548.6964      3.7063898     -55011.186    
    105900   2210.7527      5818.2284     -14073.837      1144.4289      3.6845427     -55049.217    
    106000   2156.5918      25373.172      8734.5206     -8066.0782      3.7108337     -55062.797    
    106100   2189.4373      3422.8855     -528.20197      4471.5172      3.7296022     -55075.415    
    106200   2121.0854     -1343.4712     -56092.034      1285.647       3.6250001     -55019.166    
    106300   2158.0685     -21169.58      -13797.069     -4945.498       3.6690768     -54994.958    
    106400   2264.5178     -9564.3535     -2343.6839      50594.439      3.7188625     -55008.636    
    106500   2243.3261      19689.344      8906.5139      23432.194      3.7128277     -54967.789    
    106600   2397.6719      12574.433      20349.383      52543.444      3.7052755     -55030.506    
    106700   2168.1004      10897.845      7295.3781      26411.366      3.6799429     -54900.511    
    106800   2297.8618      34244.814      27530.954      50332.173      3.7624143     -54951.515    
    106900   2290.7736      20129.201      26580.931      44160.154      3.7364416     -54903.227    
    107000   2347.036       8614.2561      16890.481      13115.572      3.6996025     -54877.808    
    107100   2198.5603     -35238.34      -212.99682     -11704.487      3.6023012     -54719.904    
    107200   2318.9638     -38084.095     -13069.236     -17147.102      3.589913      -54704.471    
    107300   2574.6249     -42949.487      6845.5053     -21224.066      3.6954164     -54795.504    
    107400   2387.8811      609.03678      3754.7255     -12883.252      3.7520369     -54674.365    
    107500   2552.0362     -26812.063      7721.1903     -14113.283      3.7184245     -54853.165    
    107600   2251.8964     -26271.613     -29410.773     -53819.47       3.6010033     -54853.233    
    107700   2202.2286     -20358.995     -29085.101     -13988.328      3.6315212     -54898.429    
    107800   2109.2501      1508.9832      12417.441      21269.632      3.6959699     -54881.82     
    107900   2159.1095     -3.5872268     -8981.3246     -10420.222      3.6015385     -54931.948    
    108000   2203.3908     -8386.8639      37359.172     -19922.728      3.6866906     -54949.438    
    108100   2188.0816      2721.9591      5918.2071     -15627.507      3.6527888     -54921.444    
    108200   2123.8579     -18721.027     -248.7873      -8500.8729      3.6273159     -54847.501    
    108300   2245.8407     -28696.279      10922.617     -13925.246      3.6560714     -54850.89     
    108400   2282.6127     -37928.104      7096.9239     -9901.8563      3.7259761     -54801.794    
    108500   2540.6583      17773.966      38634.094      12297.948      3.7822454     -54908.156    
    108600   2550.8456      12294.812      16406.218      4944.6961      3.7204298     -54921.433    
    108700   2622.7614     -11048.681      5471.5941     -18416.42       3.7046802     -55047.748    
    108800   2426.7325      2922.832       36918.693     -2152.5659      3.8287039     -55068.962    
    108900   2273.529      -14632.585     -29872.539     -29999.349      3.6403711     -55030.515    
    109000   2307.1513     -9717.1994     -28268.039     -16616.667      3.7227334     -55073.255    
    109100   2144.4217     -748.85929     -17075.818      7865.5539      3.7787038     -54999.486    
    109200   2179.538      -13330.046     -4951.4192      11939.956      3.8007708     -55017.681    
    109300   2324.0821     -35979.91       9649.7086      8753.0625      3.7214534     -55081.611    
    109400   2237.6386     -21300.048      21198.309      14525.275      3.679552      -54995.184    
    109500   2301.1174     -5920.6794      13401.425     -5844.3706      3.6743223     -54962.048    
    109600   2362.7279     -5590.7788     -527.17507      5133.3213      3.630957      -54920.907    
    109700   2310.2349      1016.3798      30120.77       15883.32       3.7207345     -54839.066    
    109800   2209.8188     -10511.3        2775.9923     -10525.518      3.6689715     -54745.398    
    109900   2189.5943      7670.8074      26295.868     -11357.753      3.6720419     -54718.457    
    110000   2553.0379      15543.417      4560.8027      16471.366      3.7474587     -54951.146    
    110100   2324.4653     -17499.699     -15391.292     -821.55781      3.7047074     -54902.737    
    110200   2239.2016     -2075.3269     -966.28046      7311.8626      3.6440355     -54915.163    
    110300   2008.7301      20602.705      16213.785      17578.757      3.6539654     -54789.08     
    110400   2111.2896     -11729.984      45091.932     -18925.642      3.6872313     -54836.198    
    110500   2242.8404      5942.7226      23557.961     -14985.668      3.7575794     -54880.796    
    110600   2315.1124     -6038.8373      39395.161      678.72634      3.7200594     -54902.618    
    110700   2473.464       26520.665      25752.98       383.87753      3.6836324     -54994.034    
    110800   2354.913       23946.579      43030.283      50371.57       3.7686665     -54956.687    
    110900   2221.8034      4920.2738      40809.889      1575.1978      3.7207222     -54941.722    
    111000   2407.7622      40724.531      18791.916      11763.205      3.8199958     -55129.089    
    111100   2192.3708      20018.552      60067.752      19021.84       3.7735154     -55095.509    
    111200   2216.2835      13258.71       8516.8218      10939.3        3.7537378     -55142.168    
    111300   2098.9147      16328.333      23233.54      -12933.748      3.7777598     -55087.968    
    111400   2162.9946      30068.756      36059.109      20285.371      3.8532179     -55098.868    
    111500   2126.4443     -5633.4414      2069.988      -9275.6647      3.7937366     -55069.552    
    111600   2325.5033      400.21206      9148.6654      31167.832      3.84097       -55148.44     
    111700   2209.1936      14375.316     -21070.944     -15220.747      3.7534937     -55066.778    
    111800   2278.3006     -172.77531      21880.188     -13384.617      3.7505686     -55046.659    
    111900   2407.4736     -22708.661     -1308.7135      985.90854      3.7217074     -54949.97     
    112000   2525.8307      11018.961      155.45991     -16267.41       3.7263119     -54933.661    
    112100   2538.1378      7715.0771      32919.431      50639.33       3.7869029     -54960.026    
    112200   2550.8448      45868.575      29244.619      58232.239      3.8231705     -55025.418    
    112300   2199.3564      3879.142       37075.478      37057.648      3.7762902     -54913.147    
    112400   2198.7749      10390.173     -23229.414     -4696.5435      3.6974922     -54969.76     
    112500   2200.6466      14209.281      2654.6291     -3650.4721      3.7084498     -55011.824    
    112600   2064.0044     -682.62384      4923.9967      16879.198      3.7580717     -54958.575    
    112700   2183.2007      9380.1821      13145.652      37548.353      3.7839339     -55022.067    
    112800   2232.8603      10860.188      33875.496      6684.1535      3.7257167     -55044.035    
    112900   2295.913       25411.104      75362.056      29526.19       3.7716418     -55033.151    
    113000   2410.0507     -2366.3525      23295.738      5582.0918      3.7616235     -55017.205    
    113100   2316.9085     -11329.241      15235.734     -11549.261      3.7173894     -54904.18     
    113200   2543.757       6391.924      -14798.299     -11001.134      3.7227342     -54995.551    
    113300   2293.6808      26287.774     -10874.857      9175.7832      3.739384      -54879.853    
    113400   2020.2052      29017.595      7625.0623     -3708.4362      3.6904386     -54799.116    
    113500   2113.0735     -18678.284      2116.8224     -6058.8779      3.6900595     -54942.45     
    113600   2117.0138     -15787.931     -24642.791      8070.6096      3.6608207     -55004.496    
    113700   2182.5622     -6881.7709      34942.595      36236.48       3.7688364     -55058.87     
    113800   2253.2028      35241.628      26479.193      21729.583      3.8626286     -55100.115    
    113900   2266.8374      30107.744     -3148.4074     -2508.6604      3.8401491     -55117.754    
    114000   2231.6411      7426.4896      40081.709      10364.058      3.7819424     -55099.739    
    114100   2254.5844      19656.971      44979.007      16134.562      3.8117644     -55104.559    
    114200   2254.6152     -16328.864     -25022.176      2349.4031      3.7419412     -55108.752    
    114300   2278.2076     -14781.12      -35692.368     -32719.583      3.7878546     -55111.699    
    114400   2080.192      -13483.209     -23814.678     -12747.995      3.7446858     -54987.636    
    114500   2302.387       11121.612      9153.0155      10154.997      3.8582606     -55096.093    
    114600   2089.1894      11490.277      5685.7552     -20845.261      3.7667217     -54967.489    
    114700   2048.1896     -37794.258     -28917.825     -20940.212      3.6135572     -54922.214    
    114800   2270.6889     -17752.415      5067.4677     -5492.7865      3.63435       -55024.847    
    114900   2112.199       31310.126      31546.901      22519.22       3.7571156     -54949.262    
    115000   2224.8612     -5565.683       39431.72       9892.8015      3.7927959     -55015.444    
    115100   2137.4802      7117.4128      34993.266      18439.292      3.8134694     -54988.222    
    115200   2092.1662     -2763.5519     -38258.863     -28001.488      3.7100624     -54966.386    
    115300   2199.8026     -21000.742     -14697.459     -15132.586      3.7716983     -55027.791    
    115400   2060.021      -37495.972     -11564.581     -31300.434      3.7704338     -54988.684    
    115500   2206.7988     -29958.852     -27392.461     -27904.282      3.7405895     -55113.581    
    115600   2206.1032     -15916.079     -5127.591      -25721.526      3.7504211     -55196.689    
    115700   2077.0574      19053.826     -2139.4825     -1134.0488      3.7861685     -55228.594    
    115800   1926.6471     -15143.596      5170.4385      12602.547      3.7186875     -55192.222    
    115900   1991.8345     -21834.675     -9260.2115     -37357.804      3.672361      -55215.38     
    116000   2147.872      -10011.256     -4761.4048      11653.273      3.7481399     -55258.633    
    116100   2058.8207     -13646.752      16877.992      31038.77       3.7703251     -55170.82     
    116200   2210.4185      18098.89      -22393.244     -19983.629      3.7768414     -55223.098    
    116300   1893.2527      847.27013     -32167.78      -52027.924      3.7090245     -55032.812    
    116400   2186.9862     -727.35587     -42253.831     -22555.409      3.6951503     -55171.777    
    116500   2361.3065     -10347.743      15690.354     -12116.011      3.7744271     -55229.024    
    116600   2379.0059      40472.375      15905.409     -1548.497       3.7728161     -55173.545    
    116700   2278.0822      28742.977     -4834.4979      9574.0177      3.7795898     -55074.198    
    116800   2186.8464     -16996.558      2173.0949     -18489.234      3.7411548     -54998.567    
    116900   2168.9313      9441.6575     -17105.94      -31763.284      3.7200222     -54959.64     
    117000   2127.9017      13706.76      -7788.8813     -36338.339      3.6835515     -54878.671    
    117100   2304.7838      7852.1628      439.32282     -14394.173      3.6692044     -54875.44     
    117200   2551.8851      6860.1713      1358.4091      951.72372      3.687907      -54970.246    
    117300   2430.942      -1908.9572     -3292.6699      18926.624      3.6715125     -54934.069    
    117400   2256.1752     -21528.231     -17230.858     -18642.951      3.6322194     -54924.642    
    117500   2076.7255     -18352.042     -19491.225     -24457.291      3.6764553     -54898.38     
    117600   2280.5285      16501.728     -6024.5821     -3703.6818      3.7270233     -55044.82     
    117700   2147.8031      37657.852     -5643.7575     -8268.4618      3.7241136     -55004.847    
    117800   2256.4521      2752.3223      13019.274     -14541.171      3.6973416     -55096.131    
    117900   2270.6406      28319.767     -7389.9646      51563.237      3.7825037     -55130.187    
    118000   2303.5265      10045.461      10083.724      38220.856      3.8083206     -55172.822    
    118100   2098.1459     -10790.415      1912.6724      14921.952      3.6860725     -55089.069    
    118200   2210.3937      16219.868      17586.147      20129.949      3.7434486     -55175.866    
    118300   2052.3792      30598.025     -1292.9028      21257.482      3.7832134     -55147.185    
    118400   2139.9383     -12955.545     -18971.58      -5284.1442      3.7219209     -55294.784    
    118500   2028.3342     -14257.024     -30953.482     -7771.6545      3.7132859     -55308.884    
    118600   1951.8352     -31764.248     -40790.926      21214.68       3.7863708     -55260.765    
    118700   2082.5066     -37645.8        17391.777      3485.1366      3.8269434     -55279.278    
    118800   2158.6127     -5067.8323     -11124.176      10482.656      3.7445846     -55249.546    
    118900   2177.4608     -6107.4394     -18317.901      16103.822      3.7765831     -55191.492    
    119000   2216.9609     -7622.9281     -31408.217      2657.3305      3.7470298     -55165.646    
    119100   2219.3475      11301.488     -13839.702      49490.286      3.8094075     -55140.516    
    119200   2273.782       16014.605      46666.611      49091.309      3.8811742     -55152.996    
    119300   2442.0505      26061.487      17352.973      19115.51       3.8079193     -55239.282    
    119400   2107.1365      10017.438      7666.1224     -3140.6932      3.7039191     -55049.853    
    119500   2073.8224     -12512.211      4936.5317      25266.087      3.8031119     -55036.589    
    119600   2109.4309     -50505.884     -16827.165     -12831.477      3.7465677     -55048.399    
    119700   2036.9021     -46178.442     -58157.795     -50364.342      3.6503106     -54998.575    
    119800   2360.8133      8443.4217     -19187.389     -20295.431      3.7757387     -55169.761    
    119900   2309.445       25086.874      20867.756      4718.0038      3.793824      -55136.268    
    120000   2420.0234     -13344.61       8714.6054      16806.978      3.7953016     -55213.975    
    120100   2266.2678     -2526.9816      15053.913     -15330.788      3.7590375     -55173.063    
    120200   2083.3745      3713.5461      10577.738     -15489.026      3.7452468     -55122.45     
    120300   2094.5386      21091.33       51338.898     -10700.177      3.7665657     -55160.176    
    120400   2133.8141      18623.868      39810.424      18298.443      3.841116      -55186.345    
    120500   2071.6101      3378.3614      20642.419      30019.786      3.7949388     -55127.658    
    120600   2102.9225     -6822.5222      13800.911      25367.676      3.7778746     -55064.926    
    120700   2223.8059     -3246.8726     -21152.923      11930.963      3.6851473     -55029.526    
    120800   2151.5196     -25994.318     -5512.209       10297.341      3.6581608     -54917.868    
    120900   2265.5722     -3734.4346     -39443.001     -20946.602      3.5846665     -54953.849    
    121000   2213.8057     -4322.4316     -27598.555      3334.3644      3.7002303     -54936.332    
    121100   2164.9936      19409.999     -29355.662      28784.548      3.7158367     -54971.07     
    121200   2257.0361      1970.8762      860.74871      32141.267      3.7587725     -55091.499    
    121300   2029.0051      32022.571     -37309.25       3760.5689      3.806655      -55032.745    
    121400   2071.7803     -10094.822      3189.3047      6820.3824      3.8530863     -55086.85     
    121500   1967.521       2058.5151     -17762.501     -28769.853      3.7529112     -55036.804    
    121600   2146.9602      4532.1087     -28340.596      724.63992      3.8069477     -55126.448    
    121700   2348.1874     -11058.912      22744.017      22801.487      3.8750415     -55245.147    
    121800   2174.0015      19009.772      6592.4815      22623.096      3.809627      -55146.881    
    121900   2256.5478      3216.6766     -6751.73        6881.4093      3.7600559     -55195.584    
    122000   2245.5094     -6147.1111     -11863.757      13342.455      3.773871      -55167.009    
    122100   2327.0279     -16826.133     -39782.859     -33558.645      3.6842039     -55159.292    
    122200   2151.579      -28699.903     -26006.013      15009.091      3.76623       -55008.508    
    122300   2022.3194      17661.824      5966.8136      47083.315      3.7672386     -54922.898    
    122400   2031.2505      20184.357     -17627.892      88.99645       3.7634868     -54933.577    
    122500   2185.7452     -14894.116      23391.405     -12875.937      3.7629863     -55024.754    
    122600   2155.7929      12839.429      572.11085      8524.7629      3.7624384     -55034.926    
    122700   2166.772       12779.739     -29672.602     -23593.86       3.6842235     -55091.779    
    122800   1980.5612     -28620.896     -15427.025      13389.659      3.7845617     -55035.979    
    122900   2025.2318     -38084.613     -36350.084     -2998.9041      3.8152455     -55099.331    
    123000   2141.9894     -23691.917      16850.125      20476.995      3.7696676     -55190.41     
    123100   2214.157      -10360.244      15168.867      2538.3154      3.7966664     -55248.552    
    123200   2160.6151      5867.7619      26808.896      7412.3818      3.8607096     -55236.804    
    123300   2044.7231     -3076.7108      22331.445      2071.7099      3.8347418     -55199.724    
    123400   2105.4434      9815.5452      13920.292     -301.05849      3.7582075     -55248.927    
    123500   2131.9694     -2116.2755      9576.4081     -34942.045      3.7091077     -55259.652    
    123600   2080.2217     -12781.157     -8550.0817      5494.6506      3.7644106     -55198.171    
    123700   2259.2471      15367.53       12905.229      25193.904      3.8045584     -55222.66     
    123800   2324.901       11112.7        3487.3735     -4918.9263      3.7647078     -55189.868    
    123900   2198.5926      18233.695      30535.501      22165.655      3.8006583     -55097.413    
    124000   2438.1341      2713.5063      24167.855      6615.445       3.755275      -55200.729    
    124100   2349.8471      20010.431      33851.734      24982.655      3.8662151     -55135.575    
    124200   2198.2675      9515.2278      38164.588      57506.225      3.8620939     -55059.846    
    124300   2210.1633      30306.993     -2352.3831      16732.792      3.7965114     -55114.736    
    124400   2080.0027      21657.551     -40808.532     -206.64319      3.799884      -55141.23     
    124500   2014.4687     -19032.048     -6115.0079     -18662.524      3.7764089     -55174.438    
    124600   1995.2335     -8273.1871     -4393.1058     -8779.3793      3.8232417     -55185.714    
    124700   2070.3273      4442.7835     -21977.258     -9336.3559      3.7905934     -55215.669    
    124800   2007.1367      21851.786     -30397.165     -20255.347      3.832852      -55136.408    
    124900   2188.5306     -7357.6089     -17298.695     -5924.1909      3.8561928     -55156.111    
    125000   2186.3004      18210.176      2022.9522      38928.028      3.8937952     -55095.585    
    125100   2294.8171     -14963.43      -3015.002      -7856.0156      3.7923091     -55126.808    
    125200   2280.4729      12986.052     -11878.741      11902.711      3.8385309     -55114.291    
    125300   2255.2705      8394.447      -14994.003     -18.636274      3.8074041     -55092.826    
    125400   2321.5823     -4053.7425     -17914.871      10062.548      3.8298477     -55127.018    
    125500   2132.0767     -8848.6993     -35069.647      3917.2793      3.8199347     -55037.243    
    125600   2169.8188     -18439.892     -11777.278      36095.112      3.775943      -55068.525    
    125700   1959.9653      9821.6378      17669.522      25474.807      3.7912725     -54960.62     
    125800   2038.721       3855.4271      18979.552      14989.023      3.8404928     -54987.996    
    125900   2203.4201      23906.956     -7708.2823      33958.762      3.8795443     -55062.002    
    126000   2228.4606      8066.8845      20817.073      26274.602      3.8293689     -55079.073    
    126100   2162.3527      12457.195      1679.7022      28588.017      3.8600217     -55070.689    
    126200   2056.7998     -17965.241     -28199.048      9389.1869      3.7900335     -55106.372    
    126300   2079.1567     -17537.57      -33210.409      22421.789      3.8351878     -55266.704    
    126400   2095.2551      3597.0066      9644.1921      23259.263      3.8784039     -55323.293    
    126500   1982.5669      24613.125     -20685.376      48681.915      3.8856555     -55261.639    
    126600   2155.0413     -8184.6153     -11221.85       17221.377      3.8347153     -55332.868    
    126700   2013.0968      730.69819      2897.069       39927.12       3.8544106     -55193.808    
    126800   2309.5578      3703.0504     -5728.8363      10243.134      3.8460531     -55293.759    
    126900   2254.5671     -31890.216      15596.072      55318.255      3.8754255     -55207.188    
    127000   2131.255      -8204.0791      11901.109     -20381.563      3.8042484     -55114.126    
    127100   2162.7818     -30123.159     -61118.67      -8947.0098      3.726151      -55117.418    
    127200   2049.4303     -48222.832     -33024.697     -16068.639      3.6745981     -55042.543    
    127300   2317.734      -46949.582     -10166.06       4553.5604      3.767172      -55177.941    
    127400   2359.6189     -6999.091       24016.36       41384.367      3.903698      -55233.88     
    127500   2191.8061      12517.689      8508.2734      24495.271      3.8705413     -55225.973    
    127600   2165.1579     -34955.312      24387.418      49670.512      3.9128942     -55290.535    
    127700   1978.7589     -27167.506     -23908.75       27701.445      3.8241546     -55245.053    
    127800   1922.3624     -27960.085     -16995.933      38145.57       3.84854       -55218.556    
    127900   2008.4064     -10421.372     -25179.154      5736.5415      3.8260861     -55233.118    
    128000   1828.573       8582.1151      257.58525      40223.687      3.8470199     -55060.493    
    128100   2202.6542     -6021.267      -34114.681     -30976.388      3.763654      -55199.786    
    128200   2084.037      -47674.532     -37189.77      -18888.87       3.6766752     -55088.717    
    128300   2160.7143     -45292.672     -27012.288      13804.392      3.7624472     -55093.744    
    128400   2253.4074     -44597.415     -14424.849     -8657.9375      3.7219424     -55136.044    
    128500   2179.7659      21082.377     -20514.885      31937.59       3.8153744     -55107.92     
    128600   2008.4688      30320.464      19150.387      17185.449      3.748715      -55023.343    
    128700   2096.935      -11961.193     -12037.478      15696.048      3.6908105     -55072.418    
    128800   2122.8033     -23214.327     -25239.051      22655.998      3.7628905     -55082.224    
    128900   2086.3475      6711.8774      581.44494      15370.246      3.7918314     -55071.246    
    129000   2223.2567     -17726.539     -6340.1471     -21458.569      3.7033823     -55161.837    
    129100   2044.41       -17655.26      -38699.133      5130.7619      3.7461106     -55109.071    
    129200   2242.3127     -25645.094     -38545.3        33251.326      3.8220777     -55263.428    
    129300   1955.7543     -20468.854     -33048.393      14320.096      3.7593486     -55147.967    
    129400   2087.953      -13899.243     -19664.801     -16242.405      3.8031559     -55252.803    
    129500   2048.3788     -5308.4368     -20510.564      26147.348      3.8315884     -55238.545    
    129600   2038.5211      7157.8209     -15410.147      33217.118      3.8574288     -55212.731    
    129700   2126.1931     -5819.4814      12055.615      24540.905      3.8370517     -55193.943    
    129800   2203.5924     -19440.478     -12755.061      18627.797      3.7974419     -55129.823    
    129900   2133.2815     -38909.765     -1656.9512     -27656.809      3.7311158     -55038.75     
    130000   2198.4171     -18075.917     -56806.009      13071.6        3.7440603     -55050.447    
    130100   2328.1711     -40066.016     -32328.549      81.513008      3.7575055     -55125.472    
    130200   1961.2928     -47380.657     -21094.81       15046.016      3.7342224     -54954.532    
    130300   2094.8314      22718.444     -4920.6122     -1179.9833      3.7688987     -55061.506    
    130400   2049.8343     -21600.763     -21222.061     -12269.183      3.7482005     -55079.629    
    130500   2097.5897     -17722.852     -13939.493     -18384.535      3.791885      -55164.54     
    130600   2060.7919      8812.8582      26150.095      14286.995      3.8669447     -55226.912    
    130700   1977.5272      8755.9987      35771.281      44304.142      3.9188136     -55228.365    
    130800   2176.9138      16336.298      23721.646      57315.513      3.9163806     -55344.502    
    130900   1970.1711      18133.337      20913.404      28203.634      3.8840932     -55215.282    
    131000   2070.7559     -20192.145     -7381.0449     -25961.509      3.8122169     -55219.364    
    131100   2068.1915     -17962.929      1442.6398     -26917.923      3.8039009     -55156.821    
    131200   2162.7588     -30682.737      34343.229     -17813.988      3.8119594     -55155.483    
    131300   2128.4366     -1119.4319     -11236.012     -18259.774      3.7411563     -55095.505    
    131400   2353.3752      4909.0496      25526.572      15130.265      3.7893104     -55190.314    
    131500   2031.6568      23295.298      57502.446      14879.16       3.8125083     -55024.697    
    131600   2300.9391      4606.5592      14363.939     -8822.4731      3.7846514     -55226.5      
    131700   1900.344       23211.696      13141.642      31834.55       3.8511625     -55085.851    
    131800   2051.7376      9253.348      -10062.84       20622.575      3.8389509     -55265.205    
    131900   2099.5434     -19873.266     -6517.1152      33690.997      3.8557419     -55327.3      
    132000   2058.3054     -9116.3549     -30728.266      30428.52       3.776735      -55296.488    
    132100   1895.2813      11914.212     -395.98933      21440.189      3.7979935     -55181.63     
    132200   1988.2835      8115.5331     -17730.535      10322.56       3.8161865     -55201.013    
    132300   2087.8423      4282.1559      3867.1052      1811.8142      3.8026618     -55212.737    
    132400   1994.5881     -20119.176      14666.666     -32490.433      3.7006151     -55106.308    
    132500   1983.5555     -5597.5923      10390.773      1669.413       3.7019226     -55060.047    
    132600   2074.5552     -7621.8071     -8201.6223     -278.51797      3.6755664     -55102.489    
    132700   2045.7248      12516.408     -853.17319      11667.659      3.7335824     -55080.867    
    132800   2118.6903     -11948.041     -3926.2527      5991.1071      3.7307518     -55112.911    
    132900   1950.3853     -19185.646     -19132.495      13783.659      3.7108472     -55012.91     
    133000   2164.1974     -26760.685     -9801.5084     -11831.678      3.7020085     -55112.051    
    133100   2045.0718      25119.287      21618.789      35344.09       3.8293442     -55036.208    
    133200   2333.4162      4066.2814      13899.215     -6682.0996      3.7967878     -55194.834    
    133300   2351.5174      20831.103      24941.054     -25353.311      3.8068119     -55231.131    
    133400   2241.1721      10815.483     -5531.4215      12186.597      3.8040081     -55278.07     
    133500   1930.344      -14180.173     -5284.4447     -1064.7278      3.7850901     -55222.311    
    133600   1906.0953     -16378.476     -36769.196      6668.4889      3.7384158     -55240.574    
    133700   1891.5098     -7492.1422     -25699.289     -9413.4494      3.7506831     -55216.479    
    133800   2013.1051     -21910.159     -282.18213     -8103.0013      3.7509923     -55211.42     
    133900   2103.3235     -6727.4799     -26656.199     -10402.093      3.7302572     -55181.069    
    134000   1959.1137     -37998.041     -32532.504     -36637.231      3.6518797     -55051.812    
    134100   2024.6336     -21679.919     -25316.754     -5178.8258      3.7161108     -55039.871    
    134200   2036.0295     -31715.736     -22391.641     -222.92163      3.6656327     -55014.996    
    134300   2254.1654     -17694.162     -35314.743      13339.66       3.7000993     -55122.133    
    134400   2188.4766      1936.1274      19585.248      37383.287      3.8214416     -55113.935    
    134500   2070.0213     -1508.1602      26463.527      10184.864      3.7940608     -55112.484    
    134600   2052.1812      15166.758      24250.145     -1720.0077      3.8085137     -55182.355    
    134700   1904.5397      3923.5479     -19802.202      14225.736      3.7116751     -55152.259    
    134800   2025.3992     -8166.9494     -30460.066     -15593.872      3.7185609     -55236.362    
    134900   1939.1398     -23839.568     -23094.599     -12524.912      3.734272      -55174.066    
    135000   2047.7269     -5826.2913     -5108.6228      6871.1428      3.7922169     -55205.539    
    135100   1997.3565     -10979.594      5436.7722      858.29836      3.7238437     -55157.375    
    135200   1976.958       2976.8987      352.93365      16378.377      3.7285893     -55125.27     
    135300   1961.3714     -7694.7822      28021.195      9218.8492      3.8060874     -55082.504    
    135400   2012.8754      10073.274      19217.582     -4538.1225      3.817447      -55070.856    
    135500   2437.8458     -24497.932      22971.537      7564.7489      3.7887971     -55255.653    
    135600   2201.183      -9951.0896      14792.955      20346.852      3.8347984     -55109.467    
    135700   2250.5331      10822.084      11984.512      23926.751      3.9161011     -55143.655    
    135800   2259.2035      9248.9938      20930.323      33695.936      3.9392625     -55206.066    
    135900   2048.055      -25041.022      3291.4604     -961.96065      3.8256524     -55233.878    
    136000   1941.4065     -14107.689     -42330.918     -9413.4676      3.8145671     -55239.019    
    136100   1996.9078     -8701.1801     -45988.241     -23306.968      3.8555103     -55295.184    
    136200   2107.4377      12937.989     -25035.768      25510.201      3.8874757     -55344.177    
    136300   1940.769       7138.3132     -4465.5123      21111.67       3.9080952     -55218.571    
    136400   2030.6882      3121.815      -21037.47      -7346.6764      3.8873708     -55214.085    
    136500   1872.8362     -13691.084     -17697.034     -18673.943      3.7841338     -55066.645    
    136600   2282.9859      4491.7045      9461.0168      18665.796      3.9016971     -55220.817    
    136700   2244.2191      59180.646      341.87698      55112.783      3.9176695     -55174.801    
    136800   2301.4757      58013.65      -8174.85        24244.426      3.8018964     -55209.129    
    136900   2104.8953      6584.344      -524.2076      -14152.492      3.7275678     -55136.055    
    137000   2077.827       3610.0903     -23663.468     -36197.207      3.7034463     -55169.271    
    137100   2148.7664      15723.281     -16805.198     -17437.131      3.7753294     -55242.733    
    137200   1988.1762      11417.986      2364.9306      18177.268      3.7736487     -55161.493    
    137300   2116.5131      24835.201      4850.9877      43836.704      3.805075      -55235.06     
    137400   2084.7984      36358.507      25333.502      191.0015       3.8145912     -55219.564    
    137500   2192.0552      34732.322     -3765.1963      960.28918      3.7806597     -55283.636    
    137600   2108.8134      14393.545      2317.9155      15076.993      3.7821691     -55249.657    
    137700   2199.1232      1641.6632     -4084.2349     -17035.002      3.7131093     -55325.592    
    137800   1996.0545     -615.77053     -5098.7707     -19051.3        3.6916957     -55253.283    
    137900   2012.4946      24268.49       18350.622     -10928.236      3.7663772     -55298.418    
    138000   2072.8273      12691.605      40384.618      12769.261      3.8671961     -55358.906    
    138100   1964.2112      11544.559      484.38329      22458.386      3.8184073     -55325.418    
    138200   2111.5031      8577.4434      14659.875     -32054.874      3.8330565     -55428.954    
    138300   1885.1867      21329.388      32175.314     -6422.6941      3.8982795     -55332.779    
    138400   1910.2089      48131.949      17975.972     -8060.028       3.9008027     -55353.378    
    138500   2000.8456      32836.8       -13052.212      5369.0624      3.8314303     -55354.471    
    138600   2127.0029      4569.5464      24168.852      18692.888      3.8600395     -55337.183    
    138700   2175.9547      3048.5165     -27935.792     -9815.1912      3.7647523     -55302.975    
    138800   1914.8916     -36163.195     -6962.9316     -6795.1761      3.7829753     -55129.235    
    138900   1910.9232     -21372.761     -14218.326     -20044.578      3.7510069     -55107.039    
    139000   1949.8148     -18850.682     -752.64759     -13140.435      3.7663645     -55094.804    
    139100   2014.9048     -4690.6406     -10375.415     -28369.398      3.720901      -55091.314    
    139200   1998.1874      5064.0837     -20660.536      3745.5203      3.7440136     -55040.404    
    139300   2194.1179      15664.371      5073.0654      11609.229      3.7888631     -55092.147    
    139400   2161.3319     -12735.766     -3972.7432     -12663.692      3.707573      -54983.5      
    139500   2110.8645      9755.3475     -3034.5615     -37555.459      3.6946578     -54871.673    
    139600   2247.7153     -1980.4342     -11380.607     -9465.6014      3.677397      -54906.715    
    139700   2397.6826      11811.603     -382.82745     -15664.259      3.7330711     -55011.402    
    139800   2216.0739      1870.6248     -8994.062      -40048.185      3.738096      -55018.872    
    139900   2207.929       2441.6677      3431.1615      1378.7196      3.7900419     -55139.536    
    140000   2250.7981      5696.2038      2941.4867      17755.923      3.889282      -55226.157    
    140100   2011.7365      13844.893      10454.494      3318.8302      3.8186307     -55153.148    
    140200   2003.2969      24175.226     -14147.455     -158.37393      3.7770139     -55191.493    
    140300   2150.0519      5513.4173     -20485.227     -11332.555      3.8136949     -55316.652    
    140400   1929.0779      39900.696     -43846.988     -28455.119      3.7959302     -55247.147    
    140500   1910.8062      9512.2633     -19685.796     -27123.6        3.7679944     -55274.012    
    140600   1921.6764      25769.838     -14805.167     -14493.697      3.8006097     -55298.268    
    140700   1845.7662     -5216.8157      11123.416      5207.2394      3.8241922     -55247.326    
    140800   1890.437       9221.9437      199.32656      15059.294      3.7595659     -55238.953    
    140900   2161.1656      16351.239     -17776.195      6477.9208      3.7796366     -55305.671    
    141000   2106.7804      2022.3809     -16099.464      26728.329      3.7458096     -55192.41     
    141100   2193.2826     -1797.4795     -24778.618     -9357.171       3.7434507     -55202.283    
    141200   1952.5211     -12605.773     -9679.1285      18579.134      3.7588847     -55073.124    
    141300   2126.3591     -6411.0249     -7243.5267     -5789.6075      3.7675445     -55203.659    
    141400   2103.8238      38668.297     -15552.188      27262.947      3.8766773     -55240.199    
    141500   1949.9903     -12251.546      10617.636      3480.9671      3.8341826     -55203.456    
    141600   1977.8425      2077.5487     -42907.034     -5512.7087      3.7546566     -55251.627    
    141700   2016.5042     -42299.748     -40797.46      -45478.939      3.7377771     -55281.999    
    141800   1994.13       -15836.482     -10619.627     -9757.2232      3.7887704     -55267.765    
    141900   2018.1912      5221.7511     -27543.47       20861.552      3.8311167     -55269.102    
    142000   2094.9692      17920.5        10680.83      -11856.882      3.834729      -55310.777    
    142100   2112.9712      425.83731     -26926.403     -57691.688      3.7757306     -55340.937    
    142200   2006.3394     -16856.581     -5898.1713     -21798.562      3.8278791     -55321.014    
    142300   2044.2224      3206.65       -9083.2295     -34641.032      3.9103616     -55406.178    
    142400   1908.2798     -9344.0563     -40777.779     -39693.53       3.8223096     -55414.888    
    142500   1672.8179      5568.7397     -19353.655      7770.4327      3.8485605     -55341.184    
    142600   1768.2377      784.124        29531.208      9.1270155      3.8824475     -55393.252    
    142700   1923.8202     -19143.466      35755.425     -10670.76       3.8404353     -55429.168    
    142800   1895.0901     -24958.74      -1233.5588      7188.5701      3.8089512     -55336.149    
    142900   2009.171      -6239.0767      29174.032      13829.487      3.8428427     -55363.229    
    143000   1988.7196     -4851.9594     -15987.092     -1055.709       3.771693      -55335.878    
    143100   2086.169      -29419.823     -12513.027     -23620.559      3.8255967     -55368.689    
    143200   1964.1123      8784.8186      16065.66       293.47577      3.8335344     -55264.893    
    143300   2200.1047     -6619.0339     -2905.2496      1356.2683      3.898684      -55354.073    
    143400   2188.292       4446.6943      6534.5186     -32264.167      3.8175767     -55309.04     
    143500   2011.8136      14640.49       34193.491      10707.285      3.8604656     -55187.577    
    143600   2148.6948     -7573.7013     -521.47736      7649.2469      3.8179382     -55257.405    
    143700   2036.465      -11908.397      5520.7706     -7294.3386      3.8604839     -55185.465    
    143800   2065.211      -54957.549     -10311.046     -9853.0021      3.8017008     -55215.774    
    143900   2076.9859     -4438.2734      854.77697     -22019.262      3.8546265     -55271.069    
    144000   1951.6295     -25371.488      6713.1648     -8807.8356      3.7991406     -55262.028    
    144100   1987.3713     -10484.15      -21375.586      3492.3123      3.8461704     -55341.545    
    144200   1783.0491      35315.059     -17883.616      23389.643      3.9253096     -55266.973    
    144300   1980.0983      7208.8298      32077.547      10898.112      3.9276248     -55394.935    
    144400   1963.8316      13695.797      33776.899      11205.768      3.9058459     -55395.157    
    144500   1948.1983     -15224.297      11190.112     -4181.7532      3.8609868     -55375.749    
    144600   2120.8751     -13579.021      3574.2472      16169.956      3.918846      -55415.724    
    144700   1998.7898      9785.8688     -20350.409     -10124.269      3.8876357     -55261.685    
    144800   2018.4222     -369.36767     -10418.52       19995.025      3.8892643     -55203.929    
    144900   2187.152      -9610.0678     -35939.641     -7097.8691      3.8644957     -55272.709    
    145000   2079.4147     -6738.7021     -11406.668     -15383.254      3.8065823     -55240.508    
    145100   2009.6644      3249.3723     -6499.9557     -21009.657      3.8531743     -55255.323    
    145200   2040.7659     -22941.395     -43326.429     -32464.772      3.7944216     -55335.291    
    145300   2097.0821     -38429.637     -37430.649     -13469.64       3.8299413     -55422.202    
    145400   2030.8284      18968.835      7382.6217     -24985.768      3.8223787     -55408.336    
    145500   1848.9863     -5477.8356     -430.91533     -19645.672      3.8014071     -55319.032    
    145600   2079.2246     -18244.272      27748.942     -3797.4466      3.8679435     -55427.195    
    145700   2106.1329     -25809.03       21347.98       15486.747      3.8210934     -55429.055    
    145800   2114.3313     -22528.249     -19670.709     -13787.349      3.8338294     -55408.099    
    145900   2142.7757     -9895.4396     -927.65678      9441.5672      3.8151928     -55375.273    
    146000   2160.9718      22651.755     -4572.844       33267.327      3.8542242     -55343.553    
    146100   2370.3968      8724.7393      29307.14       7361.2017      3.8466571     -55429.958    
    146200   2066.9565      186.37947      8945.4615     -9313.2435      3.8566234     -55289.448    
    146300   1950.324      -35790.328     -6903.7999     -10998.814      3.7277683     -55303.683    
    146400   1846.3431     -3343.3564     -31977.811     -19887.566      3.8002444     -55316.623    
    146500   1813.2795     -42927.504     -16659.189     -12112.079      3.8283966     -55335.424    
    146600   1948.4485     -17740.275     -8511.4515     -4287.8866      3.8761946     -55424.39     
    146700   1933.2757      6364.9573      28913.366      8937.4016      3.9431399     -55415.597    
    146800   1962.1115      13300.128     -1211.3467      34907.124      3.9011552     -55402.992    
    146900   2213.8206     -6854.4777     -10184.945      43591.661      3.8334239     -55472.121    
    147000   2004.6145     -54272.452      5254.706       8402.6598      3.7673315     -55260.583    
    147100   2139.9118     -41283.253     -35289.022     -23408.931      3.704774      -55287.58     
    147200   2394.3411     -20632.303      1926.6731      6617.3947      3.7861711     -55423.039    
    147300   2201.9923     -22807.326      40698.091      18222.675      3.8137986     -55345.443    
    147400   2076.7177     -5169.2658      8314.0645      14978.993      3.8072513     -55343.107    
    147500   2031.0413     -16460.788     -4074.1835     -7370.217       3.8149604     -55359.483    
    147600   2076.9371      445.91409      11380.772     -5141.7154      3.8394434     -55410.358    
    147700   1894.5645     -26945.05      -8733.2357     -1173.1051      3.731815      -55327.893    
    147800   2113.9588     -42040.729     -8122.4375     -7372.8752      3.7259774     -55447.122    
    147900   1800.1481     -28707.988      13879.599     -31318.063      3.7868966     -55277.338    
    148000   2051.4721     -52596.986      12417.517      21568.732      3.8104357     -55413.43     
    148100   2030.6133     -10571.157     -41090.359      5498.4597      3.8166906     -55391.627    
    148200   1989.0846     -24522.679     -19907.639     -21064.83       3.772385      -55322.304    
    148300   2145.7301     -38957.838     -22828.075      29592.801      3.8043416     -55324.42     
    148400   2210.4989     -1206.1505     -1024.787      -2290.8931      3.818575      -55314.83     
    148500   2168.6028     -23709.418      2455.1381      13720.636      3.8048338     -55264.989    
    148600   2052.3665     -40973.82       22703.327     -12098.436      3.7809314     -55203.61     
    148700   2167.3068      171.99801     -6554.5923      29726.283      3.8081466     -55330.794    
    148800   2061.9167     -12095.565      13096.426      12558.617      3.8459384     -55374.201    
    148900   1946.3427      15816.132     -16937.539     -4240.2021      3.8668968     -55377.897    
    149000   1946.2018     -23661.979     -11384.73       28433.949      3.8820086     -55392.329    
    149100   1915.6533     -12213.435      21042.694      14482.724      3.8218591     -55376.01     
    149200   2020.2799     -27360.842      3259.2748     -19400.878      3.7825073     -55425.031    
    149300   1790.8248     -30278.505     -16969.826     -14528.257      3.711491      -55273.419    
    149400   1970.6269     -5956.6739      9608.2446     -15492.888      3.7969941     -55330.584    
    149500   1983.7294     -3403.3754      27349.521      21353.784      3.7882939     -55257.721    
    149600   2168.3507      1746.4691     -3388.8546      21568.289      3.8257977     -55290.658    
    149700   2021.5623     -8560.4889     -30764.782     -15576.881      3.7068634     -55189.594    
    149800   1863.1928     -15856.407     -38892.794     -26553.838      3.7192231     -55120.562    
    149900   2254.6873     -4877.139      -18973.941     -3832.9623      3.7674368     -55356.979    
    150000   2078.4296      18380.621      19389.501      33418.464      3.8294752     -55300.562    
    150100   2061.6806     -21419.569      14202.268      23224.766      3.8213439     -55313.964    
    150200   2021.0541     -22265.023      21652.533     -1305.9747      3.8182379     -55321.761    
    150300   2159.8544     -15047.487      8662.0635     -32379.825      3.736536      -55407.535    
    150400   2056.761       11028.501      23796.387     -6938.7001      3.8318628     -55359.903    
    150500   1946.9219     -24891.922      21957.85       5346.2143      3.7812832     -55321.723    
    150600   1970.6235     -15872.499     -24894.606     -5394.8487      3.7879425     -55368.015    
    150700   1756.1752     -32282.179     -1004.634       1661.1563      3.8021264     -55295.37     
    150800   1830.0766      43433.582      22640.902      3719.8988      3.8600533     -55387.489    
    150900   1869.1327      46879.852      14596.313     -4711.5912      3.8500076     -55455.581    
    151000   1858.7541      4503.8181      6307.8276      36498.98       3.8771727     -55455.403    
    151100   1892.1928      3302.9467     -19929.886      3525.4646      3.810662      -55420.775    
    151200   1826.3735     -5284.7243     -14870.307     -9141.9792      3.7791239     -55291.75     
    151300   1933.3511     -4794.3875      650.58259     -2371.3489      3.7405726     -55275.273    
    151400   1859.7349     -35782.81       3179.825       2838.2292      3.7810045     -55191.267    
    151500   1906.9942      12815.54       22391.724      8665.9746      3.7691619     -55181.623    
    151600   2041.5494     -17990.461     -30404.404      9291.5138      3.7651385     -55225.609    
    151700   2108.9678      11101.865     -2806.2703      4596.6673      3.8040541     -55247.346    
    151800   2039.517       10026.309     -21983.34       9426.7893      3.7508783     -55226.486    
    151900   1986.5943      24150.504      664.21446      5275.5234      3.7659443     -55213.488    
    152000   1907.4909      5137.8861      1670.7849     -1768.8064      3.6978498     -55217.038    
    152100   2059.2991      9322.1393      6739.641      -13523.279      3.789643      -55368.388    
    152200   1757.4573     -19597.482     -8042.7544      13754.387      3.7336581     -55265.631    
    152300   2013.0818     -7163.7861      12235.244      9772.8505      3.8318466     -55434.473    
    152400   1889.5344     -11339.946      12368.546      16863.569      3.8186028     -55376.946    
    152500   1828.6764      9180.9462      51792.691      24009.387      3.8871642     -55319.916    
    152600   1876.748       6124.4685     -17157.948     -6364.7985      3.7978618     -55261.493    
    152700   2134.2536     -48561.509     -214.12696     -30357.009      3.7585127     -55287.789    
    152800   1968.9361     -6257.8542     -3091.2899     -20201.359      3.7897681     -55163.052    
    152900   1897.267       17007.577     -21177.55      -12443.162      3.8148671     -55120.292    
    153000   1895.6555     -20874.799     -38759.723     -15067.21       3.7672954     -55131.09     
    153100   1967.8534     -18804.305     -19430.855     -26864.288      3.7822608     -55218.436    
    153200   2021.1919     -31816.004     -45216.785     -21524.109      3.7970066     -55324.276    
    153300   1921.9091     -6901.9641     -12158.657     -22421.599      3.8363849     -55343.613    
    153400   1954.5447      9761.0727      38706.984      11792.078      3.9126215     -55392.092    
    153500   2083.4068      10673.492      28642.867      20952.976      3.9745929     -55468.313    
    153600   2050.4206      16367.038      4905.0719      4554.6553      3.900416      -55459.025    
    153700   2194.1406      16321.184      5317.2599      1714.6319      3.8864491     -55548.716    
    153800   2014.7728      4757.7858      16330.412      11326.781      3.8608124     -55460.919    
    153900   1835.7942      7618.8862      2992.605       9005.3587      3.7996379     -55367.69     
    154000   1964.1241     -17307.349     -16871.154     -9538.0743      3.842499      -55441.689    
    154100   1821.715      -13459.791      1529.5266     -30732.111      3.8359959     -55354.364    
    154200   1867.6339      14582.907     -1699.8415     -16219.926      3.85702       -55344.223    
    154300   1998.5568      14495.429      39387.238     -3100.7282      3.8720284     -55380.302    
    154400   1980.3365      44357.7       -352.50962      21925.072      3.8365917     -55341.395    
    154500   1992.2288      16731.941      12387.77      -6263.4874      3.8150209     -55320.233    
    154600   2150.3005     -10237.522     -18454.815     -35439.408      3.7908213     -55373.959    
    154700   1889.1138     -5521.2543     -5178.7628     -29221.765      3.7429226     -55182.441    
    154800   1972.8402      7414.7939     -29138.879     -5698.5778      3.7460311     -55182.814    
    154900   2229.8415      6195.2798      8876.4103      10433.837      3.7722605     -55280.092    
    155000   2296.0369      13686.03      -12401.879      33221.312      3.8148996     -55327.378    
    155100   1947.6468      30473.996      27921.258      21178.508      3.8345651     -55235.839    
    155200   2020.0313      40403.706      14453.035     -2861.5128      3.8183891     -55370.403    
    155300   1887.9907      15743.407      19097.148      21400.208      3.86497       -55328.855    
    155400   1953.3033      25817.419     -200.02965      18841.216      3.8922351     -55398.557    
    155500   1831.6381     -6342.298       2670.1541     -20601.592      3.8072525     -55347.654    
    155600   1949.2441     -2971.3252     -9949.6491     -17414.345      3.8242387     -55403.606    
    155700   1891.7767     -653.0044       4373.512       10243.796      3.8621073     -55343.831    
    155800   1891.8264      9412.2028      15944.92      -8341.8294      3.8577195     -55308.466    
    155900   1864.5064      2851.0745      28162.614      887.5334       3.7959405     -55240.896    
    156000   2200.6276      21505.618      44026.577      17616.632      3.9229478     -55350.428    
    156100   2184.229       31131.142      33281.188      3336.0617      3.8715944     -55300.836    
    156200   2070.3502      20417.275      25824.787      3358.4493      3.8473216     -55214.831    
    156300   2046.1231      8292.4505     -5883.4614      31746.62       3.8195453     -55213.392    
    156400   2011.2767      4457.1841      13178.756      3513.1528      3.7730192     -55251.959    
    156500   1947.5157      5338.6233      2296.6209      1304.4366      3.890842      -55334.424    
    156600   1952.724      -925.18393     -30028.359     -30780.53       3.7823033     -55404.264    
    156700   1888.9229     -1344.3666     -11890.013     -21485.986      3.809695      -55381.854    
    156800   1981.1839     -2882.9566     -6940.8583     -10804.586      3.8162539     -55418.561    
    156900   2011.6424      5376.5064     -25885.362      10631.68       3.8386836     -55426.799    
    157000   2063.8894     -31161.495     -12664.075     -12114.544      3.8227101     -55473.325    
    157100   1853.5529     -27000.72      -47718.202     -38936.734      3.7971876     -55406.472    
    157200   1922.4029     -40357.057     -14782.256     -32159.252      3.7737973     -55488.67     
    157300   1865.6343     -2371.8523     -26589.053      32867.347      3.8651369     -55482.398    
    157400   1899.1779      9567.8946     -358.62099      1598.8166      3.8580524     -55518.834    
    157500   1809.2297      22033.81       17691.83       4702.5852      3.885325      -55466.947    
    157600   1877.919       23717.942      4811.0844      5987.005       3.8758269     -55450.009    
    157700   1965.3007      21042.616      21290.845      15355.176      3.8225278     -55393.109    
    157800   2125.9697     -11934.069      8191.7832     -6794.1284      3.8294756     -55416.311    
    157900   1995.2034     -18406.927     -18822.953     -29214.601      3.7209595     -55330.657    
    158000   2061.8435      5989.294      -8168.7435     -6764.3258      3.8242224     -55392.978    
    158100   2022.4294      5993.9348     -29550.425      4990.9553      3.7772206     -55427.593    
    158200   1856.3156      3601.5706     -23927.286      17544.561      3.8197899     -55405.874    
    158300   1927.5956     -6812.5699     -8504.8559      17040.305      3.7954229     -55487.097    
    158400   1789.3335      15816.386     -21298.662     -4562.6602      3.8057202     -55426.986    
    158500   1907.0439      2020.5817     -10623.136      11293.296      3.9004641     -55488.5      
    158600   1980.5876     -13365.856      24640.815     -16193.687      3.8364519     -55503.443    
    158700   1877.5556     -21456.551     -11030.388     -8674.9548      3.7824749     -55412.413    
    158800   1747.1471      1251.0466      2432.4082      7360.7878      3.8245045     -55305.821    
    158900   1879.4931      7444.0216     -3160.9717     -6449.0406      3.7943617     -55349.047    
    159000   2024.8679     -7653.9599      10487.63       11845.55       3.8609642     -55418.761    
    159100   1866.4034      12867.655      1499.3145     -13788.652      3.8204956     -55315.968    
    159200   1812.9395      4216.8948      3310.4341      20975.459      3.8153219     -55290.618    
    159300   2052.6175      9859.565       2561.6122      20408.174      3.7727435     -55418.47     
    159400   1894.1307     -8246.4815      7577.5026     -17883.018      3.7472317     -55343.613    
    159500   1866.9033     -12886.599     -52444.947     -26026.594      3.7186749     -55333.761    
    159600   1824.1432     -22473.398     -12666.563     -42872.637      3.7215907     -55301.319    
    159700   1928.9379      9275.4444     -27906.619     -27131.281      3.7513941     -55340.379    
    159800   1966.5256      10039.928     -8254.6353     -7810.8083      3.7333567     -55329.208    
    159900   1897.124       29408.348      35748.837     -5432.1305      3.8281052     -55256.076    
    160000   1987.3983      40675.359     -4527.1873      21118.661      3.8287842     -55266.981    
    160100   2210.5         19619.568     -14200.716     -6164.1269      3.7873079     -55369.324    
    160200   1949.7582      8477.3622     -5162.7713     -19595.603      3.774396      -55252.66     
    160300   1918.6247      13607.56       1487.5046     -31783.093      3.836383      -55298.375    
    160400   1908.1985      30557.247     -40884.699     -13393.253      3.8090562     -55374.901    
    160500   1797.2712      4418.5848     -31654.562      3235.0488      3.8055055     -55366.339    
    160600   1823.3451      4153.3633     -22935.293      9444.3447      3.8398778     -55399.512    
    160700   1743.1556     -5382.7858     -42155.429     -9142.6865      3.8404326     -55343.899    
    160800   1619.9978     -37928.676     -3505.0181     -52202.766      3.7741816     -55249.005    
    160900   1719.8391     -8520.5912     -23120.994     -13631.307      3.759671      -55263.046    
    161000   2043.3118     -15169.164     -20379.63       19130.752      3.7775928     -55385.653    
    161100   1934.2343     -9658.9414      21321.084      35640.905      3.8585123     -55303.93     
    161200   1875.6749      2469.176       13858.819      5970.7117      3.8203863     -55280.318    
    161300   1934.1169      14913.064      34368.804     -8986.5988      3.8004079     -55336.586    
    161400   1825.2707      21488.757      27058.297      597.84088      3.799587      -55305.473    
    161500   2080.7771      3290.0747      37049.423     -3439.2865      3.8140182     -55456.399    
    161600   1838.3641      24904.648      525.48778      22368.465      3.8678793     -55324.331    
    161700   1917.9053      20535.251      8990.7838      23865.696      3.7898571     -55364.365    
    161800   1940.3083     -6813.0848      18083.421     -777.20595      3.8285197     -55378.876    
    161900   1797.4141     -19054.086      24877.544      10741.901      3.8686979     -55343.621    
    162000   1814.0149      19750.294     -1092.6853      7143.5124      3.8583785     -55417.135    
    162100   1821.8183     -13216.993      7091.2766     -8929.3576      3.8251695     -55477.286    
    162200   1742.306      -44010.735      2163.0716     -22852.03       3.7891696     -55465.242    
    162300   1682.1725     -12589.593     -17969.961     -31862.303      3.7456777     -55435.709    
    162400   1753.4405      3636.8209     -13969.386     -11258.921      3.8588079     -55436.207    
    162500   1763.4985     -15878.278     -18657.704      32630.37       3.85882       -55355.253    
    162600   1845.9989     -1666.1868      31334.25      -6296.9452      3.9036213     -55341.831    
    162700   1964.2776      16734.894      8424.4251      33691.665      3.9125248     -55375.474    
    162800   2065.4064     -9635.4166      6315.7227     -6930.5288      3.8208436     -55432.569    
    162900   2045.7724     -13430.794      7553.8449      10784.176      3.8327961     -55436.184    
    163000   2019.1544     -3272.7569      50164.317      9473.3698      3.8440683     -55444.751    
    163100   1920.2192      15085.973      38636.513      28696.31       3.8640245     -55435.57     
    163200   1897.3259     -4625.6782      13635.765      2333.9113      3.8508564     -55475.406    
    163300   1788.8547     -5169.5478      10125.893     -7295.9269      3.8299213     -55464.811    
    163400   1751.81        4499.2192      19695.474     -28981.514      3.8439093     -55476.972    
    163500   1708.2699      19284.054     -12389.774      5292.649       3.7962385     -55445.561    
    163600   1919.0761     -21960.167      8778.0351      15958.999      3.8581414     -55476.759    
    163700   1935.6553     -8563.7036      12856.146      8272.1987      3.8606134     -55377.142    
    163800   1970.5241      21868.827      2994.9197      40096.356      3.8570671     -55346.468    
    163900   2048.6643      5288.2709      6056.8568      25189.908      3.8303536     -55362.273    
    164000   1993.3667      7821.3929      35222.258      411.45664      3.8357558     -55332.484    
    164100   1948.9402      28845.308      22219.404     -18891.231      3.8036714     -55324.674    
    164200   1798.8561      23278.176      7408.8487      19771.378      3.8304871     -55259.942    
    164300   1895.0449      8067.9826      17721.465      13484.681      3.8503643     -55363.074    
    164400   1879.1673      3649.6206      2908.0172     -3280.8972      3.8294987     -55400.95     
    164500   1866.3597     -9064.61       -361.48473     -3930.0997      3.8600703     -55436.068    
    164600   1642.1741     -16362.543     -17760.749      13386.533      3.8025962     -55363.9      
    164700   1825.0241     -17851.086     -10787.832     -22458.822      3.8303126     -55492.418    
    164800   1676.6962      13890.796      1506.6319     -28488.151      3.8790425     -55409.909    
    164900   1694.5428      7069.1929     -14343.924     -8281.6627      3.8225884     -55387.419    
    165000   1756.7471      5973.9928     -21405.729     -6458.5811      3.8002109     -55338.499    
    165100   1907.5538      2035.8636      1362.6272     -14432.09       3.8521349     -55342.177    
    165200   1972.0256      15905.205      30350.565      9333.8536      3.8929949     -55354.321    
    165300   1891.3796     -1614.3686      16362.797      2558.0259      3.7925474     -55323.661    
    165400   1976.6122      9672.5393      28283.426      26081.186      3.9343839     -55393.62     
    165500   1900.9319      16209.229      25980.225      26899.011      3.8640547     -55382.616    
    165600   1909.5385     -662.54967      23541.648      593.25949      3.8849155     -55439.912    
    165700   1798.757      -234.21799     -14556.37      -4732.391       3.8677565     -55443.103    
    165800   1677.8846      5527.1342      3309.2525      30078.402      3.8949191     -55439.173    
    165900   1838.2879      20885.609      29540.431      27195.011      3.9492122     -55557.531    
    166000   1742.4013      13593.519      26390.333      3779.0362      3.9169036     -55508.315    
    166100   1612.5868      923.9803       9137.5194      15858.173      3.8306449     -55413.791    
    166200   1956.6672     -30058.73       18933.363     -21626.126      3.7988015     -55561.071    
    166300   1813.8982      1644.666      -4857.5246      3442.76        3.8375973     -55463.969    
    166400   1854.7183      594.32753      5603.9786     -6695.0853      3.8384486     -55469.273    
    166500   1728.5875     -27159.827      9091.4675     -18912.162      3.8396698     -55378.547    
    166600   1863.3912     -39661.16      -12241.705     -42467.751      3.7894117     -55431.738    
    166700   1854.6692     -3789.8535      9545.2164     -23198.112      3.8569083     -55402.787    
    166800   1933.7219     -6149.1823      6978.4854      17711.935      3.8904537     -55408.284    
    166900   2084.3397     -6314.1191      6591.2121     -1810.9349      3.8790826     -55459.355    
    167000   1913.7985     -23880.122      1525.3224     -14646.644      3.8117824     -55363.594    
    167100   1822.2979     -34020.729      13486.87      -1958.4048      3.8139957     -55321.455    
    167200   1847.0414     -5362.8488     -4783.8149     -32320.84       3.8449276     -55390.564    
    167300   1749.2987      5735.6082      6635.0451     -24683.622      3.8613221     -55417.323    
    167400   1765.2424      11422.386      6071.1832     -5901.6109      3.9182104     -55485.735    
    167500   1983.775      -8212.7615      10017.459     -9113.0595      3.9827401     -55635.553    
    167600   1821.0719     -7203.6291      7966.5085      15290.848      3.9270113     -55553.102    
    167700   1904.4216      14306.193      56393.211      22881.186      3.993396      -55587.811    
    167800   1726.9723      11061.741      22010.455      30575.179      3.9386381     -55460.676    
    167900   1798.0762      22745.747      4895.2143      20631.237      3.8979231     -55418.824    
    168000   1839.8147      871.27572      36899.069      24214.852      3.8954671     -55351.272    
    168100   2062.1554     -630.7711       17676.433      14823.072      3.8943567     -55441.758    
    168200   2110.0192     -21994.629     -11822.038      5174.1756      3.8355932     -55468.541    
    168300   1953.588      -27601.88      -30595.701     -19007.326      3.7885712     -55415.629    
    168400   1879.7974     -35953.063     -4082.3663     -38783.866      3.8912207     -55424.531    
    168500   1878.3856     -15510.917     -8688.021      -10138.309      3.8811417     -55488.167    
    168600   1939.9814      17399.758      9711.5761     -3967.2103      3.9086129     -55573.317    
    168700   1712.3834      20452.281      8667.1052     -3399.5821      3.8948205     -55475.858    
    168800   1834.6266     -9567.4399     -9410.0396     -18469.301      3.8363908     -55550.436    
    168900   1710.7321     -11534.695      14747.639     -20575.901      3.8475419     -55472.262    
    169000   1903.0402      3692.0641      39468.175      3201.6596      3.911209      -55549.225    
    169100   1852.5776      4078.9524      9897.3869      6573.5413      3.9254751     -55481.718    
    169200   1886.2581      16044.089      12014.543      24036.751      3.9061578     -55478.397    
    169300   1827.1342      31739.477      10811.131      28014.392      3.9058759     -55444.522    
    169400   1979.6267     -465.66008      23909.837      34426.745      3.902308      -55540.548    
    169500   1838.8697     -17334.766     -27220.163     -29919.004      3.7898873     -55477.245    
    169600   1903.1008     -51409.997     -28976.646     -15460.154      3.8257611     -55519.811    
    169700   1791.6765     -261.23157      23855.791     -5043.1745      3.8704572     -55453.412    
    169800   1788.5007     -18607.872      36180.017     -4795.3184      3.868546      -55445.206    
    169900   1788.4797     -2908.15        22643.838     -11754.066      3.7774553     -55422.731    
    170000   1788.6002      21990.874      1850.628       6010.1474      3.7962747     -55364.072    
    170100   1882.1521      3732.8241      25678.549      4226.2279      3.8798432     -55352.028    
    170200   2089.9563     -25904.317      6656.7334     -28570.129      3.8498984     -55432.722    
    170300   1944.5528     -27449.275      1561.8474     -8184.6109      3.8218537     -55355.747    
    170400   2037.4239      14720.695     -3164.1756      26506.633      3.8802419     -55466.043    
    170500   1856.3144      19771.31       14211.922      4546.8481      3.8804202     -55467.625    
    170600   1955.9582     -6300.3734     -1326.5037     -19785.379      3.835809      -55573.137    
    170700   1941.2823      16880.176      10446.556      6988.0449      3.8708813     -55583.05     
    170800   1755.8218      15908.764      34645.685      6303.7025      3.8509372     -55505.604    
    170900   1738.1459     -3372.571      -9805.6257      3121.9578      3.802291      -55503.345    
    171000   1614.1537     -22987.87      -42504.592     -30185.826      3.84273       -55426.41     
    171100   1930.2706     -42635.764     -14687.407     -15131.076      3.8241417     -55571.62     
    171200   1875.4611     -29083.966      11890.665      6304.9791      3.8237266     -55493.777    
    171300   1947.4763     -1876.9088      19129.582      16558.021      3.8840771     -55482.274    
    171400   1932.8694      28299.548     -4671.0374      8015.9347      3.8704543     -55437.879    
    171500   1887.6814      5652.8734      2107.9597     -7947.7044      3.8575319     -55392.129    
    171600   1970.1666     -8063.581      -31327.046      16231.953      3.8211494     -55424.595    
    171700   1807.3859      4772.7762      10588.735      3719.6079      3.8270225     -55324.973    
    171800   1769.0593      8267.5426     -6552.4404      17402.356      3.7782885     -55305.504    
    171900   1850.7688     -19191.082      3651.2732      869.99413      3.7940538     -55368.806    
    172000   1881.5294     -3372.2274     -7323.5342      33157.486      3.8290965     -55425.121    
    172100   1836.1601     -3575.6373      7360.8563      11755.121      3.8232481     -55450.762    
    172200   1752.7934     -16581.585     -1264.0916      26683.397      3.8296539     -55441.27     
    172300   1867.6344     -26589.587     -13638.828     -3773.902       3.7958945     -55523.722    
    172400   1814.7053     -13736.326     -17323.785     -32993.94       3.802122      -55514.754    
    172500   1776.5555     -17431.179      13522.866     -14666.308      3.8538849     -55516.545    
    172600   1891.358      -12280.42       8036.3887      7748.0929      3.8250688     -55579.712    
    172700   1757.256      -9644.1687     -21802.673     -13111.457      3.7811684     -55509.867    
    172800   1589.0332     -9774.2841      13648.491     -3708.7386      3.8661474     -55394.75     
    172900   1760.7798     -12247.964      6948.5906      10376.359      3.82144       -55448.492    
    173000   1779.7855     -1165.3375      33540.299      21440.108      3.8429539     -55396.514    
    173100   1964.0892      272.16894      39219.879      16911.883      3.8622642     -55441.357    
    173200   1983.2326      10249.313      30174.042      5800.3972      3.8609623     -55414.801    
    173300   1777.2711      14638.265      22907.401      24988.522      3.8644502     -55307.302    
    173400   2025.2359      1754.8125      18652.17       10989.619      3.8769457     -55482.319    
    173500   1997.9561      16755.485      3695.0987      31635.124      3.8307096     -55520.717    
    173600   1730.0481      18129.802      37747.214      12846.422      3.8421192     -55441.885    
    173700   1817.2178      27194.056      25000.321      43876.48       3.8426591     -55539.48     
    173800   1689.3905     -6505.3752      14797.382      20932.441      3.8440523     -55480.998    
    173900   1702.4476     -20993.779     -3502.2995      19458.701      3.843365      -55468.148    
    174000   1691.6305     -10812.521     -14134.027      7928.8682      3.7717855     -55431.685    
    174100   1812.7286     -2817.558      -13608.771      22058.417      3.7982247     -55450.737    
    174200   1768.8183     -19840.283     -24596.334     -35175.32       3.7346811     -55389.11     
    174300   1893.4885     -43724.025     -21638.673     -32225.461      3.7373072     -55428.123    
    174400   1860.776      -19579.806     -32065.328     -19636.626      3.7691475     -55398.399    
    174500   1858.3867     -37245.954      8710.1408     -15959.767      3.7865954     -55403.809    
    174600   1856.7784     -10848.158      826.55059      1605.5861      3.7601982     -55427.376    
    174700   1853.4984     -13327.305      37921.618      3697.1455      3.8017368     -55510.518    
    174800   1814.5493     -50602.708     -8094.6523     -23301.067      3.7805738     -55573.766    
    174900   1709.9065     -26068.004     -3783.2615     -5531.8857      3.8254218     -55563.391    
    175000   1681.4388     -28788.54       13251.431      11713.907      3.8339922     -55552.298    
    175100   1716.8083     -4401.6456      32659.605      12571.846      3.8651708     -55549.74     
    175200   1744.3884     -6802.9858      974.91295     -17988.82       3.8280839     -55528.283    
    175300   1808.8386     -4918.2476     -16833.927     -12356.855      3.782413      -55506.63     
    175400   1792.7072     -32057.923      12955.971     -27053.099      3.7718189     -55443.405    
    175500   1923.474      -30532.193      2617.663      -3258.7333      3.7930434     -55491.311    
    175600   1769.8225     -30443.589      26068.007      13804.481      3.8066364     -55414.151    
    175700   1931.1239     -7453.243       336.24898      37420.292      3.8605149     -55536.513    
    175800   1722.1383      5131.8172      29004.948      27472.126      3.8633003     -55470.204    
    175900   1795.2159     -27237.444      12932.32       65332.316      3.8755619     -55553.324    
    176000   1772.8162     -31506.657      20305.015      43442.724      3.849552      -55577.275    
    176100   1893.6182     -38243.776      21452.922      17577.974      3.8979837     -55716.171    
    176200   1615.1411     -6090.17        26209.134      6329.6695      3.8510682     -55679.796    
    176300   1638.6284     -15636.474      48730.776      5543.7331      3.8827735     -55724.004    
    176400   1554.3439      6152.1091      29637.966      7327.2775      3.9248796     -55658.284    
    176500   1673.0876     -24609.855      13123.954     -6998.9419      3.9196823     -55660.199    
    176600   1573.9708     -27923.444     -3065.0229     -27405.351      3.7632395     -55529.235    
    176700   1712.1135     -46977.794     -12574.764     -38520.285      3.7866283     -55545.736    
    176800   1781.0627     -39805.11      -18738.261     -28925.108      3.7756948     -55533.063    
    176900   1891.1932     -29052.925     -23464.858     -22839.736      3.8252087     -55574.799    
    177000   1820.5643     -30195.773     -11793.541     -19695.266      3.8321963     -55520.641    
    177100   1736.4486     -9005.5629      12834.541     -1783.2084      3.8762898     -55469.806    
    177200   1855.3702     -20828.478      4535.6373     -13416.018      3.9072924     -55544.114    
    177300   1886.0049     -8508.0332      12647.839     -314.58472      3.8912301     -55591.373    
    177400   1785.5649     -5842.6037      8546.6483     -19912.445      3.8843953     -55589.223    
    177500   1730.1223      11516.553     -891.69433      20132.925      3.9173658     -55611.393    
    177600   1680.4632      24285.548      40860.828     -9614.3923      4.0107266     -55618.349    
    177700   1575.3727      29578.725      32309.704     -7920.0319      3.9770421     -55565.511    
    177800   1734.0927     -7313.3985      9495.634      -10018.054      3.8753248     -55615.717    
    177900   1897.5724     -12782.282      16220.316     -8371.4515      3.9619312     -55603.815    
    178000   1808.823      -25268.537      12898.61       18162.488      3.8711365     -55490.335    
    178100   1972.7258      9583.3848     -22080.355     -12267.474      3.9216376     -55550.083    
    178200   1777.7849     -45540.354     -8723.9291     -36658.814      3.868268      -55447.374    
    178300   1975.2018     -8490.8369      6281.0639      11437.449      3.9706325     -55583.578    
    178400   1699.9274     -5745.9834     -22728.01       1377.5671      3.9037793     -55481.331    
    178500   1844.0895     -23670.712     -4404.1895     -36152.912      3.8646892     -55605.673    
    178600   1666.1926      4498.0035      21559.453      5575.001       3.9264292     -55539.18     
    178700   1829.0261     -21683.115      18932.137      3639.0444      3.9140632     -55648.965    
    178800   1679.2629     -3089.6986      16859.684     -17472.746      3.9146324     -55573.34     
    178900   1710.6787     -25912.387      7262.5541     -6860.226       3.8674597     -55578.493    
    179000   1770.0553     -22958.902     -4490.1762     -20898.895      3.8484989     -55563.68     
    179100   1754.4056     -5688.6833      22330.539     -19915.446      3.8191229     -55422.641    
    179200   1923.3701     -24288.135     -8397.681      -16723.811      3.8471332     -55439.248    
    179300   1903.3953     -16246.641      1633.1849     -6590.501       3.8430585     -55443.375    
    179400   1839.3521     -8414.5605      2525.9         2789.1096      3.8684992     -55439.315    
    179500   1823.2398      7823.42       -3910.8824     -1665.3527      3.9172359     -55498.007    
    179600   1838.1233      488.21561     -379.12302     -10909.6        3.9204884     -55569.227    
    179700   1666.8988     -13863.509     -5543.1042     -6117.4707      3.8404437     -55517.165    
    179800   1687.9471      6466.5325      11987.067     -13037.332      3.9002184     -55549.775    
    179900   1806.4176     -5539.0973     -13152.596     -21077.913      3.8119083     -55604.116    
    180000   1729.8534      8236.9996      13059.884     -184.11062      3.8819934     -55535.294    
    180100   1764.9994      2083.7186      44321.709     -9529.0988      3.8657254     -55481.935    
    180200   1944.59       -25173.126      16994.569     -19466.005      3.8461159     -55513.126    
    180300   1721.8333     -3693.3714     -2038.8471     -21403.586      3.8108483     -55351.322    
    180400   1866.2823     -9485.1396      35943.615     -3606.1617      3.8717936     -55417.907    
    180500   2001.2834      19242.592      9816.2569      16963.318      3.9904999     -55500.254    
    180600   2027.5445     -18116.302      35400.856     -1548.4159      3.9503435     -55546.377    
    180700   1768.5604      3520.6905      44173.82      -14352.987      3.9709509     -55439.114    
    180800   1623.1099     -17440.937     -7825.2898     -25861.482      3.8810034     -55384.58     
    180900   1838.2466      2399.2597      17774.05      -19745.683      4.0120871     -55531.061    
    181000   1786.0778      293.77097      8445.1223     -17461.131      3.9208102     -55532.433    
    181100   1732.7064      35268.186      26359.294     -3364.6838      3.9838927     -55519.605    
    181200   1815.3051     -17265.391      31637.035      27496.973      3.9885205     -55574.768    
    181300   1842.406       29677.044     -3878.4301      10828.636      4.0614996     -55605.773    
    181400   1798.8369     -2586.2262      23077.885      4286.6156      4.0059279     -55606.095    
    181500   1679.0425     -7293.0972      3930.8242      6286.8493      4.0160037     -55585.292    
    181600   1674.9691      781.91996      4510.9751     -195.69168      3.9682141     -55682.302    
    181700   1516.2385     -12459.569      9498.6549      7856.6246      3.9918588     -55666.075    
    181800   1614.1895      2354.2864      19460.135      11497.463      3.9478282     -55726.917    
    181900   1610.5758     -13960.563      39736.2        8705.8543      3.9720171     -55694.189    
    182000   1663.2912     -6338.0994      11511.602     -15211.39       3.9617644     -55662.489    
    182100   1697.6484     -24020.286      8841.6977     -23947.249      3.9731639     -55622.862    
    182200   1532.7968     -152.97241      3483.3925      19326.366      3.9919528     -55493.07     
    182300   1617.8516     -8076.6859     -86.898033      8108.1509      3.9541915     -55493.068    
    182400   1774.4193      8318.345       3408.3829      19546.36       3.9731713     -55530.732    
    182500   1831.2285      28272.082      27439.972      18054.369      3.9656348     -55530.902    
    182600   1905.7187      39508.671      22784.252      939.96927      3.9735034     -55551.336    
    182700   1881.1891      19033.034      51453.828      15641.862      3.9888405     -55527.011    
    182800   1777.8029      4625.6053      29312.721      31316.791      4.0198954     -55480.539    
    182900   1809.9866     -10905.966      17512.524     -21468.329      3.9756295     -55557.094    
    183000   1666.5161     -20928.499     -2637.9759     -27864.864      3.9379161     -55566.806    
    183100   1685.0029     -7729.5362     -24347.399     -16089.418      3.8874849     -55624.049    
    183200   1586.359       24181.124      33857.007      6775.6007      4.0110755     -55571.746    
    183300   1760.0113      4843.2024      29640.98      -11533.756      4.0037785     -55641.036    
    183400   1540.5376      13982.589      22013.087      3809.6461      3.9492417     -55481.119    
    183500   1703.4449      23273.163      6292.3429     -7292.804       3.999692      -55515.935    
    183600   1802.1142     -13062.236     -3344.1107     -26985.682      3.907538      -55538.265    
    183700   1735.0405      20207.552      12525.327     -12564.693      4.0123303     -55490.285    
    183800   1860.0229     -17340.089      13042.733     -30664.549      3.9348819     -55554.809    
    183900   1675.9369     -8742.7312     -19664.62      -1405.297       3.9446699     -55453.688    
    184000   1976.4796     -624.38966      11758.49       1323.8137      3.9593222     -55615.101    
    184100   1665.1289      6443.2979      13073.301      13063.783      3.9152888     -55445.403    
    184200   1786.9719      5281.5685      11705.134      11828.575      3.9633766     -55507.614    
    184300   1799.1399     -5895.1845      994.07633      984.83755      3.8929307     -55527.931    
    184400   1756.3859     -22911.122     -11913.978     -20979.49       3.8563091     -55525.239    
    184500   1833.016      -18123.545      19895.842     -30625.865      3.9431417     -55590.324    
    184600   1640.5526      3349.6524     -970.38079     -14415.415      3.9393055     -55515.516    
    184700   1642.5958      15987.323      5215.6592     -3318.0465      3.9109674     -55515.006    
    184800   1753.541       14893.662      23562.013      30536.847      3.9568695     -55547.975    
    184900   1882.2714      29196.348      2544.5367      27251.117      3.9412054     -55572.553    
    185000   1917.1959     -3558.1861      8292.1652      8022.0418      3.9351626     -55543.704    
    185100   1845.1154     -7401.1836      20460.091      6008.5196      3.8646999     -55466.871    
    185200   1815.6631     -7304.2524     -17759.422      20873.31       3.9193165     -55446.01     
    185300   1783.2818      4910.7781      17342.158      18187.403      3.924443      -55443.779    
    185400   1781.9775      22823.308      15285.049      28667.05       3.9270482     -55508.164    
    185500   1654.3076     -15910.495     -27220.564     -5917.4756      3.8080994     -55544.579    
    185600   1764.3525     -7217.3989     -7593.4249     -18657.102      3.8844012     -55643.955    
    185700   1704.5053     -820.4722       8957.1875      19649.977      3.9620052     -55625.133    
    185800   1717.0963      143.42877      2205.907       16661.047      3.9518157     -55637.426    
    185900   1616.2532     -17462.802     -43856.647      1551.483       3.8967869     -55583.376    
    186000   1641.5311     -2356.0777     -14158.555     -11629.776      3.8888874     -55573.646    
    186100   1954.2023      8963.9636      2185.2508      18746.831      3.9658573     -55698.253    
    186200   1735.039      -3969.0708      2390.6828      28667.824      3.9409055     -55504.475    
    186300   1820.3826     -21948.763      12893.743      21023.007      3.8914779     -55498.956    
    186400   1790.901      -9069.5647      57483.817      18156.419      4.0237797     -55461.833    
    186500   2002.449      -14861.623      35055.65       34845.707      3.951065      -55596.681    
    186600   1878.63       -20130.097      16186.28       20541.311      3.917361      -55591.783    
    186700   1634.7753     -5760.4425     -5431.2101     -15359.605      3.8647476     -55511.638    
    186800   1844.6517     -36729.029     -4126.6141     -11145.226      3.8453836     -55644.15     
    186900   1765.9847     -6667.185       356.33762      3263.4878      3.9311617     -55613.932    
    187000   1670.8269      19922.384      784.06526      37306.401      3.9863414     -55581.94     
    187100   1770.5421     -861.50129      26576.333      7446.3368      3.8928709     -55653.809    
    187200   1679.1667      34441.116      4202.7038      24089.82       3.9419289     -55622.592    
    187300   1774.1282      7383.6501     -14234.585      7260.0575      3.8790529     -55688.621    
    187400   1662.5963     -3631.6364     -36913.547     -11329.408      3.8045532     -55643.829    
    187500   1764.5751      16315.412     -20748.245     -24443.749      3.8671095     -55693.809    
    187600   1762.1793      16982.31      -18896.161     -1940.4522      3.8796013     -55663.73     
    187700   1766.9476     -8505.6491     -11648.821      2559.9796      3.8757966     -55629.469    
    187800   1875.2185     -19555.877      1280.2753      1874.5909      3.9089413     -55636.995    
    187900   1826.8001      11803.513     -12497.502     -16039.96       3.8744337     -55562.518    
    188000   1811.3824     -279.30134     -19533.319      16355.357      3.9143073     -55529.574    
    188100   1897.3246      5179.4272     -13375.16      -2795.1441      3.9246285     -55591.309    
    188200   1709.8537     -11442.381      15262.905      10101.747      3.9325541     -55548.884    
    188300   1787.9514     -26136.817     -28096.181     -50189.743      3.8646994     -55671.678    
    188400   1601.8983     -19523.891     -9606.1246     -25265.638      3.9269143     -55613.137    
    188500   1586.7521      15903.608     -20253.632     -38053.532      3.9180066     -55619.733    
    188600   1762.5779     -1848.1431     -28753.431     -2724.6837      3.8675816     -55712.226    
    188700   1582.7161      14109.781     -3205.6297      15756.75       3.9305579     -55598.842    
    188800   1749.6929      34361.013      4176.6944     -11216.756      3.9314283     -55660.214    
    188900   1725.1843      15074.745     -6798.5346     -5243.4363      3.9389193     -55608.48     
    189000   1742.4819     -10790.784     -17236.571     -9219.5099      3.8941329     -55562.295    
    189100   1778.3283     -37478.055     -36717.101     -12943.023      3.9006812     -55560.769    
    189200   1663.5367     -2428.8313      2162.1099     -7878.6678      3.9176984     -55511.696    
    189300   1775.2217      2784.844       14953.25      -8983.0981      3.9573696     -55652.822    
    189400   1611.1462      20794.951     -24097.172      45676.311      3.9852642     -55655.968    
    189500   1767.1521     -2078.0851     -5197.5397      14029.002      3.9246836     -55775.196    
    189600   1688.8985     -1763.674      -14426.396     -25803.201      3.8719339     -55737.364    
    189700   1579.4995      31200.434     -10873.277     -3608.6444      3.9709593     -55646.855    
    189800   1651.0149      8476.1104      2529.7465      33577.363      3.9673367     -55634.395    
    189900   1699.8262      22858.941     -27155.819      10589.58       3.9707159     -55605.069    
    190000   1726.8647      5929.2186     -13467.419     -6097.5173      3.9190238     -55579.8      
    190100   1800.5957     -20029.282     -28285.65      -4392.9162      3.8807508     -55615.133    
    190200   1909.0289     -2352.992      -27360.968     -13026.097      3.9033254     -55675.078    
    190300   1657.663      -7266.7823      6653.7228      12245.18       3.896825      -55557.953    
    190400   1758.1112      13995.03      -9127.935       21758.511      3.9215273     -55651.634    
    190500   1592.7256      13097.786      2409.6099      28415.551      3.956237      -55656.624    
    190600   1514.7422      3734.0111     -25239.204      35190.584      3.9594042     -55685.812    
    190700   1535.6262      16495.69       5775.0289      11727.368      3.9817254     -55703.618    
    190800   1680.6707      10070.163     -3167.1153     -13455.177      3.924754      -55755.397    
    190900   1711.3286     -7744.6243      10434.557     -16948.868      3.9352808     -55725.852    
    191000   1700.9407     -11826.482     -16150.737     -25659.825      3.8774285     -55668.188    
    191100   1666.9318     -20806.731     -51857.604     -17610.245      3.8585134     -55613.361    
    191200   1600.7399     -11456.892     -17870.304     -23944.678      3.8428436     -55546.787    
    191300   1729.9136     -5339.8517     -35155.695     -8346.4509      3.8786533     -55594.025    
    191400   1847.8285      10936.324      9655.2247     -14482.676      3.9155344     -55639.328    
    191500   1751.5427      1871.78        20886.977      26160.014      3.8900675     -55567.145    
    191600   1796.9583     -4652.7603     -23314.043      23431.174      3.8947786     -55557.816    
    191700   1766.2168      3041.9081     -18973.763      17283.209      3.874213      -55490.761    
    191800   1762.2357      2236.0635     -11980.309      2266.8157      3.8448999     -55459.723    
    191900   1883.7351     -5556.6161     -2457.9461      17167.315      3.9356446     -55551.799    
    192000   1731.8337     -29142.727     -13958.078     -6667.3327      3.8715349     -55553.005    
    192100   1667.0256     -24870.896     -14504.688     -10597.021      3.8294563     -55585.355    
    192200   1632.7989      22834.382      6664.7068      8153.2046      3.917775      -55596.718    
    192300   1651.9099      32312.85       2921.5903      12076.743      3.9252699     -55625.274    
    192400   1582.3041      11293.526      25916.724      33764.145      3.917234      -55610.317    
    192500   1674.9992      17674.308      11961.697     -12636.112      3.9697776     -55671.949    
    192600   1625.4654     -1614.2855      5425.5288      18333.212      3.9114645     -55645.845    
    192700   1699.8914     -12073.45      -15098.693      11861.754      3.8765111     -55662.697    
    192800   1643.2149     -20279.882      2963.4881     -10387.574      3.9090646     -55570.189    
    192900   1866.624      -1242.1958      16540.239     -1080.7149      3.9624294     -55628.198    
    193000   1978.7168      5924.6575     -521.62729      3279.0638      3.9303509     -55664.492    
    193100   1747.2732      25598.99      -5944.7507      16720.166      3.9357137     -55553.606    
    193200   1650.9907      42409.795      17580.647      18429.733      3.9854348     -55563.908    
    193300   1653.6856      24308.805      4810.5048     -2436.1734      3.9267843     -55632.369    
    193400   1688.8181      19908.445     -19510.867     -5658.3203      3.930469      -55675.953    
    193500   1723.042      -4964.0187     -1799.8506     -14522.247      3.9040293     -55701.938    
    193600   1576.0032      23496.147      5042.666      -29982.555      3.9978436     -55616.771    
    193700   1706.6416      10342.41      -19233.048     -30259.218      3.904224      -55679.837    
    193800   1678.9867      229.71919     -28723.993     -22576.848      3.8505972     -55655.582    
    193900   1709.6817     -22726.027     -26783.713     -37529.414      3.8296059     -55656.527    
    194000   1707.6602     -9052.4456     -23684.301     -22772.927      3.8923733     -55628.813    
    194100   1740.3689     -5169.4893      17600.029      14820.52       3.974319      -55585.587    
    194200   1830.914       7110.1034      27532.65       2019.6185      3.9419451     -55555.151    
    194300   1801.548       10256.145      19438.237      21739.427      3.9197011     -55500.183    
    194400   1865.493       9077.187      -919.63259     -39181.461      3.8581678     -55549.575    
    194500   1747.4299     -7237.1372      23590.135     -36167.603      3.8848321     -55527.015    
    194600   1880.5921      1629.6962     -10316.334      7381.6371      3.9157323     -55654.12     
    194700   1789.7044      13391.012      18735.885      6669.2272      3.942325      -55641.219    
    194800   1840.4791      14348.962      682.86436      24057.943      3.9562565     -55698.361    
    194900   1654.9104      33147.577      20016.324      2365.306       3.9993291     -55632.148    
    195000   1666.67       -19676.234      12390.281      6947.4477      3.9214802     -55684.339    
    195100   1789.7837      25529.504      29958.629      15429.487      3.9813326     -55781.348    
    195200   1749.5585      42383.583      32295.689      5037.2115      4.0111469     -55785.278    
    195300   1614.4842      870.17809      19685.958      15168.012      3.9923371     -55721.736    
    195400   1636.7043      30878.76       18706.51      -2115.0725      4.0027239     -55713.335    
    195500   1715.9599      3525.9856     -7231.3322      5684.8963      3.967097      -55702.623    
    195600   1878.0731     -14442.503     -19542.504     -21082.109      3.8870954     -55699.311    
    195700   1793.3033     -18124.013     -21820.144     -47195.818      3.8930008     -55605.974    
    195800   1758.067      -43597.075     -34847.908     -44216.949      3.8258493     -55578.305    
    195900   1652.9076     -2700.5213     -3900.6763     -50156.666      3.8574603     -55527.591    
    196000   1796.5286     -17629.31      -15001.615     -4776.5503      3.8717529     -55631.855    
    196100   1612.3651      17424.977      22512.64      -9362.3633      3.9231073     -55577.277    
    196200   1631.7705     -14373.041      14399.135      14004.666      3.9600369     -55613.316    
    196300   1613.9157     -22010.969     -9365.7573     -30223.392      3.9064947     -55625.148    
    196400   1665.0224     -39389.121     -32411.562     -27119.511      3.8872386     -55668.581    
    196500   1620.0751     -8247.411      -33974.802     -875.45256      3.9182164     -55651.709    
    196600   1631.2438     -3617.7402     -12973.473      6543.1242      3.9446836     -55656.167    
    196700   1495.9684     -8523.8664     -5923.7001     -12959.4        3.8661339     -55575.326    
    196800   1741.2808      19142.006      1790.7991      17590.429      3.9842871     -55704.516    
    196900   1802.1632      16040.508      11820.181      4986.2066      3.9695283     -55727.953    
    197000   1677.3084      28126.502     -14874.203      23690.887      3.9527897     -55650.703    
    197100   1655.4138      44336.746     -319.58402      17063.274      3.9680737     -55620.612    
    197200   1845.7838      4369.0667      8070.973       5353.8095      3.9385885     -55677.273    
    197300   1828.9183      20885.45      -13646.78       15861.41       3.9055563     -55602.806    
    197400   1887.9719      29500.305      16674.719      13158.052      3.9452634     -55594.923    
    197500   1782.205       7528.0668      2639.2164      11823.737      3.8509069     -55544.129    
    197600   1787.9769      15752.226      27625.718      4446.6297      3.8853648     -55606.839    
    197700   1637.0856      21649.752      31514.54       14634.804      3.9495014     -55612.025    
    197800   1708.6904      14198.8        3924.4855      17865.558      3.9245155     -55701.226    
    197900   1538.5188      31561.234      2834.0402      9711.8039      3.8942563     -55635.702    
    198000   1610.6575      13702.148      22150.695      12631.88       3.9514843     -55676.361    
    198100   1541.2643      12097.842     -10922.718     -11265.468      3.8785863     -55633.371    
    198200   1555.3719      28888.627     -22591.584     -5359.025       3.8584424     -55611.776    
    198300   1723.932      -19017.338     -14558.544     -21809.936      3.8070088     -55649.745    
    198400   1786.149      -15367.777     -37206.807     -12723.284      3.8481344     -55639.071    
    198500   1731.3697     -1920.3021     -18506.646     -17263.341      3.8369018     -55571.29     
    198600   1808.0141      10835.693     -15223.954     -36979.864      3.8355381     -55596.807    
    198700   1679.0025      20698.218      22629.947     -10973.99       3.904436      -55538.448    
    198800   1667.5488      32125.064      17148.734      18524.552      3.8693        -55601.607    
    198900   1597.3271      4727.7341     -9083.1494     -7599.1524      3.8504711     -55641.557    
    199000   1472.122      -37670.831     -6708.5375     -30085.223      3.8561741     -55623.443    
    199100   1661.7783     -18736.607     -31418.752     -26536.974      3.838951      -55745.5      
    199200   1626.0109     -2544.4997     -5250.4479     -4719.369       3.9317073     -55726.559    
    199300   1688.4253      12140.71       19035.98      -14342.724      3.9079619     -55743.36     
    199400   1631.9636      632.42509      2447.5634     -10090.119      3.8697814     -55672.554    
    199500   1582.8271     -12679.357     -6224.9868     -20408.126      3.8475761     -55594.395    
    199600   1644.2129     -5146.5309     -17935.164     -11920.551      3.8174363     -55571.466    
    199700   1782.0854      28404.017     -26519.42      -20420.282      3.8839476     -55619.79     
    199800   1802.1836      15330.332     -14480.85      -22454.812      3.8550516     -55634.361    
    199900   1828.541      -24847.514     -33808.593     -27030.067      3.8213486     -55676.615    
    200000   1736.622      -13971.695     -26176.545     -15346.381      3.8557864     -55658.357    
    200100   1767.9316      7150.0117      14756.09       11838.5        3.89896       -55693.768    
    200200   1635.0424      16834.682      11178.252      26650.475      3.9196553     -55636.575    
    200300   1708.185       5946.5645     -26181.164      4449.3242      3.8399519     -55703.436    
    200400   1679.065       28964.548      8804.7871     -3948.1886      3.8973638     -55710.069    
    200500   1634.0051      4909.5469      3967.82       -18129.773      3.88824       -55704.537    
    200600   1644.104       18170.491      17714.211     -12658.442      3.9227682     -55710.254    
    200700   1759.6827      13798.894     -1796.6357     -20192.499      3.8817805     -55776.65     
    200800   1651.6182      12318.135     -7201.5619     -10783.335      3.8584463     -55711.337    
    200900   1668.889       31465.749      29759.059      12198.173      3.9525303     -55699.514    
    201000   1816.0756      21780.561      17141.246      13379.249      3.934469      -55748.645    
    201100   1624.8988      18197.458      6972.3125      551.62298      3.8911752     -55611.604    
    201200   1625.6652      1245.9451      10525.438     -11016.15       3.8390136     -55579.489    
    201300   1779.8988     -8630.5386     -36120.875     -19235.499      3.8202879     -55653.121    
    201400   1708.285      -16680.644     -11211.413     -9267.425       3.8785642     -55628.423    
    201500   1539.2703     -13403.318      17055.189     -597.62598      3.8794991     -55576.471    
    201600   1676.5495     -11139.086      21088.584      2590.2985      3.9520957     -55704.124    
    201700   1558.1623      15809.148      14704.005      12551.191      3.9765809     -55697.891    
    201800   1579.0746      10268.45       25850.232      16465.419      3.9637995     -55733.253    
    201900   1618.3606     -5069.3723     -17354.64       4143.6165      3.8800419     -55767.907    
    202000   1453.47        8317.5885      8102.1256     -4891.3922      3.9390538     -55682.387    
    202100   1660.8561      1098.6771      5662.4115      5719.6146      3.944232      -55779.656    
    202200   1717.0333      42795.386     -30932.018      4682.5615      3.8809242     -55714.139    
    202300   1817.6785      66065.065      32534.228      33631.631      4.0031219     -55683.482    
    202400   1897.038       36335.841      17418.703      13160.701      3.9350341     -55699.877    
    202500   1706.9428      12788.697      29522.805      17117.739      3.9044338     -55602.142    
    202600   1818.7944      14461.252      3489.2783     -20512.019      3.9438043     -55686.932    
    202700   1662.8723     -90.006765     -9626.5982      1216.6962      3.9213272     -55655.604    
    202800   1691.8242      7074.4364     -41791.452      10804.081      3.9210345     -55723.782    
    202900   1553.8635      30418.369     -32266.242     -1691.4474      3.9232328     -55683.281    
    203000   1537.9098      8025.6498     -26659.693      4988.4727      3.9216006     -55689.129    
    203100   1655.189      -13864.338     -3081.4488     -4824.5652      3.8916353     -55751.633    
    203200   1558.2834      11656.38       4749.4676     -13909.179      3.9288996     -55691.68     
    203300   1599.7139      5361.655      -11343.124      3279.4014      3.931256      -55691.097    
    203400   1646.3197     -13580.348      3904.5936     -9436.1309      3.9136261     -55676.368    
    203500   1802.0162     -3575.3958     -12765.066     -6518.721       3.8982199     -55655.08     
    203600   1794.5478      8573.7867      17089.134      9301.6259      3.9249938     -55589.618    
    203700   1765.4385      17864.659      36370.84       25563.402      3.961489      -55580.86     
    203800   1949.8987      55602.633      12566.382      4904.6766      3.9808003     -55733.458    
    203900   1749.9369      23069.993      6464.04       -2097.3662      3.926093      -55691.459    
    204000   1553.9666     -26399.915     -9040.6404     -8875.8136      3.9048737     -55633.093    
    204100   1580.7144     -26355.789     -29177.018     -30033.586      3.8469631     -55675.161    
    204200   1541.4697     -38398.2       -24288.278     -16355.83       3.8447751     -55677.217    
    204300   1588.285      -12584.045     -26309.194     -12756.812      3.880256      -55714.067    
    204400   1686.5646     -2712.8628      135.04868     -3112.8923      3.8938096     -55757.02     
    204500   1613.7761     -2762.7195      27539.664      8864.1816      3.9021641     -55693.774    
    204600   1682.3645     -17468.263     -10226.675      11200.931      3.8502904     -55698.553    
    204700   1722.0342     -26345.854     -3167.5254     -10586.396      3.8164375     -55666.074    
    204800   1698.8269      5805.8179     -713.49233     -2701.8685      3.8993445     -55593.97     
    204900   1723.8968     -10107.516      12556.724      27126.419      3.8987098     -55588.313    
    205000   1821.253      -3099.7757      5280.5515     -4817.2443      3.8418212     -55672.877    
    205100   1745.8191     -17912.579      4399.7976     -12036.087      3.8983913     -55713.294    
    205200   1547.8396     -6179.088      -3286.7076      6671.746       3.91567       -55659.85     
    205300   1509.8314      30568.005     -7470.5566     -6861.8823      3.8714877     -55670.248    
    205400   1590.6001      5823.0329     -3733.7198      11721.264      3.8820059     -55721.016    
    205500   1656.6583     -4719.7594      6780.724       1192.8453      3.8904817     -55751.856    
    205600   1572.3759     -10306.205     -16802.654      1513.0773      3.8707629     -55701.414    
    205700   1534.1946      21747.665      3288.5245     -2234.991       3.8795747     -55669.256    
    205800   1574.2507      8514.7331      21867.004      29200.698      3.9132035     -55670.756    
    205900   1702.6066      35026.684      16436.169      13451.412      3.9249057     -55695.962    
    206000   1856.4522      26404.292      12964.862      34881.408      3.941311      -55725.838    
    206100   1748.6632      15320.319      26255.669      25339.601      3.9373598     -55638.688    
    206200   1794.732       5203.6387     -1438.6362      20885.228      3.923121      -55653.356    
    206300   1638.8271     -14865.641     -30790.055      8836.7708      3.8556534     -55607.447    
    206400   1682.3134     -22418.867     -16785.406     -8482.8064      3.8405379     -55723.271    
    206500   1463.5392      21848.671     -13719.925      264.52836      3.8859328     -55664.496    
    206600   1525.19       -8290.8173      3512.7191     -5569.1923      3.8540148     -55718.888    
    206700   1562.6682     -188.66613     -2378.6316     -17336.337      3.8661224     -55737.624    
    206800   1526.5582      8026.6598      12724.746      11726.597      3.9310609     -55703.982    
    206900   1584.3824      9253.4854      10851.113      7253.5965      3.9409184     -55721.719    
    207000   1643.6361      2513.4525      25784.047      25132.864      3.9344174     -55745.022    
    207100   1609.1879      2115.5596      9007.8811      8229.6897      3.8859449     -55719.062    
    207200   1599.2538     -50224.303     -4744.8637     -1468.2268      3.8571923     -55705.969    
    207300   1519.3567     -14392.083     -247.0159       90.877448      3.9063281     -55659.067    
    207400   1527.4134     -1554.9085     -20557.616     -3799.4588      3.8582863     -55687.458    
    207500   1564.094      -11505.285     -20244.414     -22477.134      3.8577968     -55729.422    
    207600   1607.4449     -27090.794     -22373.068     -33566.211      3.8629854     -55786.39     
    207700   1525.338      -13951.376     -12963.196     -32172.498      3.854319      -55758.114    
    207800   1501.0748     -5239.654      -29010.996     -40512.808      3.8054944     -55754.914    
    207900   1377.1936     -21465.819     -37849.425     -5879.439       3.8992612     -55677.148    
    208000   1485.4804     -34992.028     -30450.178     -14412.336      3.8684662     -55689.056    
    208100   1604.9415     -23597.941     -24337.272      147.35258      3.8577798     -55688.367    
    208200   1577.0219      2123.2902     -10766.347     -4816.6097      3.9020834     -55626.319    
    208300   1678.9443      8866.348      -24918.55       17752.737      3.8832671     -55661.958    
    208400   1666.3184      17189.904      16974.452      29151.697      3.9455857     -55669.822    
    208500   1684.293       14279.756      1174.0183     -13456.41       3.9171317     -55717.719    
    208600   1487.9706     -8380.0554     -7678.8731      287.92824      3.8624374     -55658.542    
    208700   1607.4872      9516.5436     -5742.9464      1021.3811      3.9110796     -55749.155    
    208800   1848.4923     -703.30472     -27263.091     -15039.626      3.8825044     -55893.82     
    208900   1719.8759      13287.59       13196.437      2131.1979      3.9389617     -55832.159    
    209000   1675.0276      24611.58      -11688.964      22615.576      3.9582831     -55815.717    
    209100   1602.6226      15010.124     -21549.316      11709.329      3.9187509     -55775.306    
    209200   1622.4066      17267.636     -14618.599      1945.5461      3.9203783     -55780.137    
    209300   1688.6895      13641.16       40682.862      38671.642      3.9575274     -55789.287    
    209400   1724.5401      30122.719      29382.87       16270.47       3.9533135     -55749.689    
    209500   1698.715       11255.341      4739.4696      6554.8663      3.911314      -55656.708    
    209600   1932.8809      2831.7013     -14499.891     -26988.441      3.8827679     -55726.744    
    209700   1785.7795     -3072.9468     -1911.4373     -11988.966      3.9138068     -55657.106    
    209800   1736.311      -35119.152     -15504.851     -29255.532      3.8427969     -55672.946    
    209900   1617.9823     -487.20066     -16603.326     -21757.395      3.8575223     -55648.386    
    210000   1681.2957     -25369.78       904.80851     -15774.185      3.8621236     -55736.494    
    210100   1529.9399      17717.168      12570.821     -9456.9825      3.9074697     -55685.602    
    210200   1578.4106      16680.46       12154.532      5463.2456      3.9370015     -55730.894    
    210300   1544.7023      7324.5999     -5011.655       13980.244      3.9341805     -55741.18     
    210400   1567.3536     -1575.6708     -12297.55      -13435.835      3.9397069     -55781.551    
    210500   1399.1384     -15075.906     -28937.611     -48311.198      3.8856244     -55715.249    
    210600   1437.8593     -6030.2261     -18130.667     -25185.926      3.9257174     -55761.816    
    210700   1509.0034     -12707.588     -24841.369     -32799.932      3.915231      -55832.072    
    210800   1553.3934      13718.963      14807.389     -6077.9886      3.9925651     -55877.06     
    210900   1477.6987      15595.262     -5274.2017     -7419.25        3.9423338     -55832.042    
    211000   1604.0069      52024.182     -4901.7648      15060.144      3.993673      -55863.258    
    211100   1622.2367      42517.655      28737.542      17129.406      4.0084104     -55814.088    
    211200   1450.2205      45274.831      22368.784      3834.4436      3.9817612     -55669.416    
    211300   1541.8026      8910.7444     -3892.7362     -36095.012      3.9011983     -55678.237    
    211400   1650.23        15188.083     -23847.353     -9393.44        3.9120261     -55717.73     
    211500   1729.392       24730.94      -10852.475      12089.031      3.9335336     -55774.424    
    211600   1551.3291      16522.04       4430.3426     -17738.394      3.9000335     -55711.846    
    211700   1684.7652      22970.598     -9508.2382     -7111.8198      3.9643755     -55826.575    
    211800   1523.8591      5930.862       11128.978     -25444.875      3.9460945     -55779.621    
    211900   1607.3433      30806.855     -25698.518      2839.7986      3.9489054     -55850.436    
    212000   1600.9061      11270.281     -251.00511      18368.805      3.9657636     -55863.029    
    212100   1544.9831      9731.9294     -2226.2486     -10629.497      3.9702772     -55837.478    
    212200   1492.0025      21173.828     -8941.7921     -13048.736      3.9116346     -55798.628    
    212300   1575.2988     -998.10679     -18284.726     -26889.54       3.915392      -55835.16     
    212400   1501.2523     -783.00351     -35692.92      -42106.738      3.8743386     -55783.913    
    212500   1524.7248     -11584.762     -21965.402     -29046.992      3.923071      -55772.999    
    212600   1527.2925     -1662.9879     -34217.719     -45328.622      3.9195972     -55739.068    
    212700   1492.6432      3740.9974     -20969.572     -25353.946      3.8973502     -55685.443    
    212800   1573.5459     -20167.983      1396.0343     -8495.8814      3.9424132     -55708.061    
    212900   1443.3671      5388.7967     -3988.0073     -17360.749      3.901416      -55628.859    
    213000   1651.9268      15332.461      23236.551      18167.766      3.9658669     -55731.902    
    213100   1601.8264      12196.269      15649.934      20525.966      3.9568966     -55705.107    
    213200   1458.147       3006.3277      12482.158      863.09531      3.9460664     -55663.313    
    213300   1562.3429     -8345.6736     -15340.642     -26912.132      3.9313288     -55782.856    
    213400   1455.3969     -3559.0806     -8208.0833     -19397.57       3.901044      -55785.184    
    213500   1529.2149      21738.34       39264.062      1118.394       3.9661372     -55853.548    
    213600   1541.3125      10497.021     -5630.5797     -1469.2788      3.9608942     -55866.4      
    213700   1544.6145     -8425.1068     -5877.5665      1457.6185      3.9015724     -55844.444    
    213800   1515.061       10982.153      6446.1267      2241.5052      3.9477214     -55793.875    
    213900   1771.7357      5464.2482     -14639.897     -18456.603      3.9070462     -55889.761    
    214000   1593.8871      12460.261      6523.8973     -12720.382      3.9064057     -55759.113    
    214100   1494.1785      8220.3368      2612.6382     -10048.207      3.8875768     -55678.435    
    214200   1607.6515      14027.794     -13534.956     -24592.3        3.8832246     -55729.47     
    214300   1620.5607      2229.8572     -6656.4784     -15612.345      3.9312579     -55740.535    
    214400   1553.7145     -15257.496     -3338.6779      2303.5288      3.9019813     -55716.927    
    214500   1655.7843      17297.262     -4285.0771      15929.662      3.979944      -55774.858    
    214600   1540.2698      11852.621     -617.8621       12996.551      4.006436      -55720.88     
    214700   1671.5553      3474.9897     -4818.4983     -15823.703      3.9670527     -55804.751    
    214800   1571.8782      10725.636      6432.7017      21645.479      3.9696421     -55768.466    
    214900   1552.2137     -1801.7315     -8700.9588      7941.117       3.9152271     -55783.474    
    215000   1372.4164     -11253.265     -13674.824     -11488.524      3.9036615     -55722.984    
    215100   1605.3512     -19268.546     -26511.256     -35528.14       3.9088881     -55874.213    
    215200   1419.1893      3143.3328      7062.495      -4219.4405      3.9510608     -55808.28     
    215300   1497.1091      15552.965     -3191.8869      5573.8739      3.9602202     -55876.827    
    215400   1492.7173      23137.855     -12115.487      78.083261      3.9416111     -55869.805    
    215500   1434.5864     -7545.2508     -1978.1414      47.445098      3.9688868     -55788.071    
    215600   1501.9028      1746.8542     -11089.713     -8297.5177      3.9195063     -55742.594    
    215700   1632.6854      1292.3466     -19755.92      -4605.3799      3.9073846     -55772.398    
    215800   1665.38        17582.89       1623.4943      21780.144      3.9519666     -55780.716    
    215900   1574.1956      10448.148     -15810.549      4956.2704      3.9093457     -55737.357    
    216000   1631.9032      8065.8963     -27.646452     -304.16346      3.9993736     -55794.121    
    216100   1564.5402      37.776195     -17690.138      10804.474      3.9274548     -55801.127    
    216200   1478.1844      27370.191      8819.0789      8352.1597      3.9748714     -55802.773    
    216300   1607.2636      12315.186     -5276.6083      9725.5776      3.9380747     -55910.575    
    216400   1425.163       11967.732     -14221.964      8932.8773      3.9858719     -55828.047    
    216500   1448.0135     -9448.3566     -33587.609      14024.571      3.9745759     -55841.4      
    216600   1402.2439     -6240.594      -1332.034      -14352.038      3.9353617     -55796.934    
    216700   1329.7658     -8825.3218     -7796.5378     -5250.0347      3.941881      -55740.057    
    216800   1445.196       16420.829     -25739.634     -25206.414      3.9467811     -55781.789    
    216900   1473.7508      11068.768     -13333.846     -3881.6257      3.9365615     -55774.375    
    217000   1401.3129      9837.4144     -34225.879      4000.6247      3.9453786     -55716.894    
    217100   1529.5925      15182.777     -36582.709      1218.5149      3.9622565     -55756.401    
    217200   1624.0744     -19900.931     -29641.041     -21873.245      3.9186404     -55789.658    
    217300   1602.0286     -6979.8348     -4090.6553     -26477.399      3.939175      -55766.858    
    217400   1574.8219     -6542.428       10754.577     -6988.9773      3.9396685     -55760.967    
    217500   1603.2341      1476.5088     -10015.485      10624.067      3.9558446     -55826.173    
    217600   1465.0085      1143.077      -5409.8668      9488.3917      3.9526307     -55817.044    
    217700   1444.6149      12772.747      13574.005     -1105.067       4.0317276     -55846.556    
    217800   1473.6334     -1827.8254      28244.646      2074.2345      4.019947      -55872.03     
    217900   1469.0667      21747.139     -2483.3727      11488.464      4.0022767     -55852.595    
    218000   1458.0889     -6050.0716     -7434.8411     -4938.5026      3.9547149     -55796.339    
    218100   1566.1997     -6076.4884     -1841.1194      1126.0983      3.9404441     -55796.884    
    218200   1578.8213      13306.804     -1893.4708      14442.186      3.9515425     -55783.039    
    218300   1604.1268     -30826.907     -5000.33       -17557.51       3.8935569     -55797.579    
    218400   1539.1522     -17807.135      4647.5789     -23150.946      3.8734731     -55764.849    
    218500   1556.5594     -2735.4609      6797.0591     -3549.5751      3.8823423     -55768.885    
    218600   1557.28        5494.6327      34850.331      25441.612      3.9108475     -55750.484    
    218700   1560.9225      15597.627      22502.918      6394.798       3.898786      -55720.515    
    218800   1721.6497      36814.102      30078.283     -11497.623      3.9291043     -55765.301    
    218900   1727.9829      24779.896      13385.022      1297.9727      3.9824934     -55714.139    
    219000   1674.6346      14416.728      2172.6199     -5781.8117      3.9333545     -55654.135    
    219100   1602.3014      15466.098      13892.058     -3616.5228      3.9350737     -55641.478    
    219200   1678.4308      32062.01      -6238.0049     -4204.2374      3.8769927     -55759.235    
    219300   1567.9067      3302.0944     -22459.389      11182.013      3.9156972     -55781.415    
    219400   1598.6035      8020.0879      4389.019      -17442.467      3.9650647     -55832.004    
    219500   1618.5808      1502.2993      2236.9496      2831.5461      3.9570043     -55855.164    
    219600   1426.7477     -6413.7373      12155.657      4295.5192      3.9505609     -55765.631    
    219700   1639.5323     -14318.525     -1811.645      -23573.061      3.9082584     -55892.931    
    219800   1450.8904      6406.119      -19983.24      -28185.782      3.930427      -55798.673    
    219900   1497.0637      11270.732     -2737.9549     -6263.7808      3.966401      -55835.218    
    220000   1593.4156      64586.897      9628.1312      19918.121      4.0119598     -55894.791    
    220100   1492.0138      38528.169      11781.905      40016.937      3.9837136     -55852.839    
    220200   1447.4418      5451.6593     -744.66904     -3240.6449      3.952953      -55846.126    
    220300   1483.2356      22701.797     -18645.039     -3600.1011      3.9128254     -55862.474    
    220400   1527.0986      33237.725     -4873.3686     -116.70872      3.9694855     -55861.608    
    220500   1618.814       36091.054      25735.225      7334.2926      3.9693794     -55858.868    
    220600   1547.0495      35011.663      15747.531      24106.642      3.9756244     -55767.639    
    220700   1585.1853      13224.873     -16142.184      1150.4716      3.9425483     -55757.622    
    220800   1646.8121     -30335.286     -9902.5013     -20282.644      3.8992374     -55776.827    
    220900   1516.9627      4046.697      -16392.617      9644.6522      3.8869325     -55720.511    
    221000   1289.1747      2066.0369      13777.494     -7957.676       3.8794267     -55641.019    
    221100   1583.3392     -6457.2804     -6476.6096     -20266.53       3.9304398     -55869.442    
    221200   1419.5518     -1211.7057     -1239.4447      9134.0776      3.9545026     -55844.111    
    221300   1528.5757      14288.12       16262.588      1545.4871      4.0029        -55928.082    
    221400   1410.3247     -3349.6118      7098.3218     -11071.05       3.9562263     -55859.533    
    221500   1482.7111      8456.7359      5479.14       -38027.981      3.9284612     -55877.693    
    221600   1378.9324     -1649.8345     -21243.926      1383.5189      3.9693147     -55786.542    
    221700   1417.0488      9130.8455     -29152.975     -23519.155      3.8830355     -55765.052    
    221800   1401.5099      6676.5335     -8382.6569     -8120.4113      3.9144582     -55715.909    
    221900   1480.9055      568.38497     -20410.381     -31992.227      3.8670503     -55745.474    
    222000   1542.2729      262.87325     -11477.225     -24752.692      3.9181999     -55781.773    
    222100   1561.9065     -34656.046     -19799.035     -26407.369      3.8235234     -55806.662    
    222200   1556.2373     -9443.9923      228.15229     -8688.5521      3.883725      -55829.266    
    222300   1435.2277      5715.951      -11274.977     -16074.702      3.8999732     -55820.503    
    222400   1340.7521     -13583.425     -7847.235      -4873.9783      3.9147328     -55836.146    
    222500   1357.4573     -12124.936     -4846.2976     -12284.457      3.9323084     -55885.396    
    222600   1382.6242      3099.1186      12093.247     -13909.902      3.9575072     -55901.692    
    222700   1309.9604     -837.97765     -13165.932     -507.3793       3.9170962     -55838.113    
    222800   1432.0691     -10020.298     -9757.3966      1742.4786      3.9212723     -55871.139    
    222900   1508.2585     -7305.9108     -11077.286     -13461.441      3.8891829     -55886.043    
    223000   1491.3666     -7916.231       5635.423       5272.7594      3.967394      -55847.137    
    223100   1405.8088     -23379.438      14139.663      346.08556      3.9380518     -55765.076    
    223200   1584.3412     -574.10153      9067.442      -7231.1489      3.9817832     -55828.871    
    223300   1572.36       -24920.222     -8775.67       -38860.48       3.8990697     -55795.512    
    223400   1545.2451      3183.7183      2318.8192     -37818.523      3.9100596     -55760.472    
    223500   1455.9211      45074.742      34335.939      28975.83       3.9530712     -55719.393    
    223600   1576.0404      2437.6317      16445.273     -12395.799      3.9130714     -55826.23     
    223700   1355.3731      23972.652      15902.168     -23580.216      3.9408575     -55794.892    
    223800   1402.3914      1898.2323     -19399.913     -13397.681      3.8922131     -55872.928    
    223900   1394.7376     -12668.661     -27341.678     -28478.451      3.8815493     -55871.904    
    224000   1354.8928     -8445.3718      5956.1455     -14693.738      3.9302036     -55833.043    
    224100   1512.4774      10173.78       11549.665     -30639.3        3.9612428     -55889.378    
    224200   1490.0708      12821.293     -4379.6882     -3000.64        3.9250211     -55835.138    
    224300   1521.7923      23204.259      28998.898      6325.9182      3.930706      -55810.286    
    224400   1509.0672      1583.8326      9944.3676     -13941.734      3.9316639     -55770.799    
    224500   1483.9844     -28217.27      -25122.049     -41669.793      3.8688754     -55749.798    
    224600   1535.5192     -21741.483     -18304.7       -34788.675      3.9148906     -55791.566    
    224700   1475.7532     -9804.7616     -21578.017     -13325.216      3.9928794     -55788.237    
    224800   1455.5226     -965.97457     -23223.056     -15737.283      3.9436109     -55799.338    
    224900   1526.9896     -11512.026      12532.51      -9638.4945      3.961852      -55854.431    
    225000   1381.1301     -13202.54       17106.231     -15166.864      3.9892191     -55784.961    
    225100   1511.0656      5422.9905     -15566.361     -27053.428      3.9628484     -55866.08     
    225200   1529.692       9941.3101      12051.598      7471.8915      4.0308214     -55885.127    
    225300   1449.9334      28324.271      40596.517      12778.819      4.0321979     -55855.689    
    225400   1669.9507      5465.0813     -8227.8178      3980.1226      3.9545938     -56000.239    
    225500   1400.1993      4630.3093     -13755.195     -11206.092      3.9271579     -55887.564    
    225600   1304.4646     -18499.878     -28060.473     -25990.392      3.8880046     -55879.263    
    225700   1304.364      -25415.212     -10353.453     -44658.633      3.9763746     -55916.042    
    225800   1300.9879     -36775.957     -17265.015     -31992.995      3.9513991     -55939.991    
    225900   1350.8188     -33378.737     -14874.951      1440.7667      4.0231257     -55964.536    
    226000   1358.327      -2784.3888     -23354.247     -39564.619      3.9884779     -55919.934    
    226100   1371.464      -7644.3751      14106.569     -37362.828      3.9755557     -55848.708    
    226200   1490.9833     -6667.384      -1862.3953      12483.644      3.9693993     -55873.523    
    226300   1500.3952      16294.356     -5804.4778     -7650.8412      3.9506614     -55848.399    
    226400   1595.5796     -928.4996      -12957.498     -1541.2091      3.9545495     -55892.094    
    226500   1537.5315      5236.4577     -32445.845      22734.927      3.9705869     -55861.795    
    226600   1562.9518     -1952.8764      276.22606     -13365.067      4.0078865     -55889.948    
    226700   1480.0551     -22346.229     -18248.434     -31291.23       3.9823438     -55879.271    
    226800   1460.2609     -7370.0809     -17670.192     -33930.516      4.0049051     -55910.17     
    226900   1467.4774     -20239.326     -24434.056     -1704.8569      3.9937916     -55949.693    
    227000   1391.5778     -3474.5128     -14333.203     -3083.5476      3.9829582     -55930.535    
    227100   1424.2074      1295.3323      4968.272       20577.933      4.0284372     -55949.913    
    227200   1406.2422      13673.571      15145.988     -6437.4737      4.0158791     -55900.016    
    227300   1516.4279      8479.554       6772.7367      6947.399       3.9780597     -55876.525    
    227400   1559.4537     -10465.748     -10184.272     -22863.198      3.9475522     -55844.312    
    227500   1522.7928     -25391.108     -2489.4117     -30538.531      3.9436931     -55800.177    
    227600   1498.9544     -5253.7833     -7148.2641     -28125.278      3.9776762     -55792.267    
    227700   1462.4861     -12115.278      18012.627     -7383.3652      3.9827286     -55794.235    
    227800   1524.1622     -21310.307     -3671.9197     -894.89995      4.0072244     -55874.12     
    227900   1566.2531     -4602.7244      9608.4457     -22752.134      3.9499221     -55944.869    
    228000   1381.323      -15217.645      13011.093      4047.9819      3.9645809     -55870.092    
    228100   1443.8471      3651.7599      5860.6667     -29599.243      3.9818254     -55918.845    
    228200   1466.0945      33783.721      6965.7552      9925.6491      4.0349085     -55929.742    
    228300   1356.4551      24900.086      27142.052      28294.112      4.045824      -55853.371    
    228400   1407.1386      24764.943      30681.254      32414.434      4.0286013     -55869.659    
    228500   1361.263       30093.458      47195.331      13487.893      4.0273072     -55834.66     
    228600   1547.8559     -14317.375      5367.0288     -9454.4925      3.9572452     -55931.11     
    228700   1400.7132      8119.6658     -3383.12       -5806.4533      3.9815701     -55843.172    
    228800   1443.6764     -10011.639     -4486.074      -8933.3299      4.0001856     -55862.089    
    228900   1491.7009      10643.973      740.94622     -16940.921      4.0005908     -55886.1      
    229000   1533.1676      3525.6188      9816.9626     -15887.265      3.9691925     -55909.219    
    229100   1467.5861      17326.699      25186.641      1134.7279      3.9967114     -55876.367    
    229200   1523.3562      12748.938      31107.431     -12972.901      3.9842549     -55904.328    
    229300   1550.2527      40642.586      47153.237      6606.298       4.0467417     -55932.092    
    229400   1483.9119      50490.033      24110.878      25262.844      4.0542368     -55917.956    
    229500   1466.377       28111.175     -2851.1737     -254.41417      3.9988208     -55920.942    
    229600   1476.351      -2307.2759      48.77602      -23490.188      3.9833538     -55930.854    
    229700   1340.8556      6585.8226      7946.2781      3005.5553      3.9941737     -55856.692    
    229800   1374.441       6974.2271      17396.502     -6488.3714      3.9895367     -55862.785    
    229900   1425.6411      3445.9852     -11208.349     -26842.888      3.9374921     -55880.695    
    230000   1481.068       10923.89      -3201.0323     -14741.396      3.9707131     -55873.517    
    230100   1616.4417      10126.12       37258.399      17764.045      4.004267      -55915.761    
    230200   1497.5829     -7445.3134      41162.334     -4196.6501      3.9504357     -55812.61     
    230300   1625.3825      15654.566      24.645538     -16233.317      3.9356963     -55865.464    
    230400   1402.0465      10436.573     -3870.4284     -6255.0587      3.9593935     -55754.823    
    230500   1432.2035      31791.756      2330.0091     -5960.1136      3.9630448     -55815.204    
    230600   1398.833       44251.222      13661.499      22200.879      4.0091267     -55878.246    
    230700   1450.2128      13921.975      31470.075      10456.232      4.0000713     -55948.428    
    230800   1356.4833      16829.525      9460.2311      12032.519      3.9703595     -55906.126    
    230900   1433.3434      15938.145      9547.5987     -2943.4601      3.9647786     -55937.937    
    231000   1464.0806      20774.179      7274.5011      20508.181      4.0160557     -55931.466    
    231100   1382.4191     -6150.8635     -6232.4685     -2948.8898      3.9815977     -55870.587    
    231200   1321.566       14604.239      12602.717      18748.19       4.0127536     -55801.158    
    231300   1525.4919     -12303.628      10379.612      10983.03       3.9918461     -55865.261    
    231400   1672.2658      3250.5094     -22108.282      30845.744      3.9808829     -55891.177    
    231500   1635.7748      9881.9453     -45519.938      20917.996      3.9165709     -55833.189    
    231600   1470.2499      2622.3677     -26611.694     -9746.2028      3.9025647     -55732.832    
    231700   1554.5188     -40255.231     -62453.885     -54441.67       3.8046454     -55800.738    
    231800   1582.8144     -44801.415     -42182.544     -44130.154      3.8639372     -55911.646    
    231900   1250.7919      6242.3011     -21715.789      1238.0898      3.9631225     -55800.09     
    232000   1446.5671      4084.8545     -12090.127     -12911.994      3.9211699     -55933.5      
    232100   1369.9316      45678.818      22235.504     -210.33347      4.0154768     -55893.05     
    232200   1420.6101      34682.862     -984.91968      5126.0796      3.9444        -55906.684    
    232300   1554.0592     -8465.9132     -16347.373     -9166.606       3.9290634     -55950.975    
    232400   1428.4401     -4248.1732     -23774.817     -14794.405      3.9407905     -55849.288    
    232500   1518.5839     -833.8912      -9519.9532     -22184.064      3.9673933     -55883.149    
    232600   1503.0313     -1746.373      -18399.117     -3762.7043      3.9283838     -55878.471    
    232700   1321.0217      12987.595     -2107.6346      94.796975      3.9745302     -55790.883    
    232800   1344.5379      5867.4646     -25559.477      10651.079      3.9908288     -55845.039    
    232900   1306.5799      12514.055     -17477.07      -1866.1934      4.0477073     -55884.789    
    233000   1317.555       15235.248      7903.7122     -7494.3017      4.0004386     -55925.645    
    233100   1398.4574      11610.528      13774.125     -8389.6088      3.996873      -55982.46     
    233200   1388.3597      7654.3045     -10185.058     -7009.2218      3.9530184     -55967.834    
    233300   1451.5957     -1801.9786     -11251.245     -16534.052      3.9754188     -55969.421    
    233400   1323.8318     -148.81624     -5573.0609     -43106.983      3.9405518     -55841.99     
    233500   1441.7848      18904.724      10255.97      -13777.66       3.991977      -55860.561    
    233600   1592.1124     -5226.4886     -23586.951     -2754.9335      3.9788184     -55934.936    
    233700   1310.3313      16003.291      8890.4489      36897.081      4.0061781     -55792.607    
    233800   1434.3507      16811.74      -2452.1441      7246.8922      3.9801852     -55877.997    
    233900   1480.9526     -1186.1755     -24440.304      11097.12       4.0011699     -55929.59     
    234000   1309.1073     -32432.622      1625.3147     -20095.08       3.9643684     -55864.827    
    234100   1357.2023      5032.2914     -5522.305      -16304.99       3.9524558     -55928.179    
    234200   1400.6601      4888.8968     -11321.881     -3397.8785      3.9852072     -55973.953    
    234300   1410.0511     -11434.127     -6097.7217      6783.145       3.9944169     -55997.385    
    234400   1372.3942      29692.305      10752.607      3121.4308      4.0246111     -55986.316    
    234500   1454.0561     -2913.5951      6981.2775      19881.63       3.9967064     -56024.32     
    234600   1413.7136      34915.639      4407.3239      13360.895      4.0272083     -55961.752    
    234700   1352.7372      1323.2567     -11246.628      32257.309      3.9734386     -55874.88     
    234800   1448.4805     -4810.0745     -18973.702     -3694.8921      3.9423807     -55882.561    
    234900   1418.5944      11164.107      10636.316     -2253.4477      3.9775301     -55831.694    
    235000   1448.2688      28263.487     -133.73689      6997.0932      4.0119688     -55835.966    
    235100   1384.9236      12293.263      15075.04       2931.2301      3.9834812     -55804.746    
    235200   1580.9257      4449.5643      2539.9496      2400.779       3.9598087     -55942.353    
    235300   1292.1674      36533.31       24972.243      11680.162      3.9984157     -55845.377    
    235400   1422.9776     -4538.187       17115.03       19126.116      3.9625523     -55957.402    
    235500   1499.4093     -5998.0658      6790.6747     -7542.1587      3.8976567     -56008.797    
    235600   1391.5839      12174.058     -9559.793      -12718.617      3.90364       -55947.088    
    235700   1379.1161      29317.995      5272.5543     -6075.3191      3.9439392     -55911.797    
    235800   1371.7614      12220.472      14385.822      3317.858       3.9839723     -55885.751    
    235900   1376.857       7146.0481      2529.7887      19477.946      3.9557646     -55876.64     
    236000   1435.5899      24161.362      40820.492      34672.518      3.9840342     -55900.205    
    236100   1387.075       13612.86       8924.0811      10861.263      3.937251      -55865.666    
    236200   1431.2707     -4550.6904      911.4242       17229.211      3.9324043     -55878.824    
    236300   1490.4329      9253.402      -3640.9778     -9363.7333      3.9629207     -55887.739    
    236400   1581.2492     -15774.235     -30178.621     -10372.887      3.8553955     -55885.748    
    236500   1608.773      -1544.4514     -32501.041      8063.3273      3.8679111     -55827.188    
    236600   1588.2663      11117.483     -5601.1799      13155.431      3.8750558     -55786.477    
    236700   1400.3122     -6052.1565      1282.0364     -3215.8582      3.9145254     -55705.058    
    236800   1415.6547      14520.514      106.97228      9761.6376      3.9296657     -55756.924    
    236900   1515.2391      8914.2327     -2526.8539     -1622.6161      3.9235818     -55864.218    
    237000   1441.0889     -6342.8574     -9816.2741      24365.509      3.9456468     -55854.203    
    237100   1507.9825     -3598.9912     -14048.181      1568.5557      3.9291047     -55909.799    
    237200   1418.743       3045.2657      1630.4281      10668.033      3.9414449     -55871.37     
    237300   1324.7809     -2755.8293      426.40258      20466.92       3.9056353     -55827.551    
    237400   1392.6861      3669.476       13060.465     -25246.186      3.8766558     -55873.494    
    237500   1261.3312      4905.1454      7212.8185     -12943.789      3.8497091     -55811.426    
    237600   1316.8475      35270.246      24761.393      2760.8844      3.9678788     -55846.272    
    237700   1423.5012      4854.1056      14263.297      11567.447      3.9497253     -55920.295    
    237800   1380.6981      20425.451      2146.8186      8311.411       3.9577016     -55920.914    
    237900   1430.6625      30088.359      34730.539      18433.472      4.0280653     -55968.747    
    238000   1369.7339      61551.989      25643.096      33077.261      4.018342      -55931.462    
    238100   1335.217      -3159.9503     -2998.7559      17193.694      3.9384337     -55904.981    
    238200   1413.7002     -7045.9578      18036.292     -15977.526      3.9607943     -55925.435    
    238300   1406.4648      4452.6118      13939.972      10347.338      3.9694688     -55894.933    
    238400   1506.4388     -16619.248     -6471.1087     -11835.667      3.8944154     -55912.261    
    238500   1545.4175     -8647.0985     -5758.9222     -10774.585      3.9145381     -55904.285    
    238600   1516.889      -2749.1005      8330.5179     -1248.6379      3.90849       -55858.049    
    238700   1426.5326     -17633.262      12147.55      -13440.407      3.9070827     -55790.972    
    238800   1449.1412     -6036.543       1686.7391      13114.034      3.9011565     -55815.514    
    238900   1329.7023      5904.7055     -16074.886      13017.917      3.9197726     -55805.2      
    239000   1424.9401     -35998.24      -7281.3161     -6309.1331      3.946907      -55922.982    
    239100   1406.1641     -15858.115     -21691.158     -2132.9694      3.9401881     -55951.092    
    239200   1352.824      -40848.865     -24937.016     -18439.387      3.902581      -55940.883    
    239300   1325.1554     -17567.232     -20011.458     -29853.872      3.8815938     -55923.19     
    239400   1298.4956     -25321.233     -97.610035     -3418.8609      3.8807677     -55897.771    
    239500   1353.7796     -14897.886      11632.304     -12112.107      3.8945183     -55897.766    
    239600   1401.8974     -10172.948      6690.0315      11201.179      3.9259038     -55868.653    
    239700   1581.9534     -12998.494      981.56949      16751.734      3.9605174     -55925.801    
    239800   1560.3378      12493.848     -26136.082      5733.6678      3.924395      -55905.109    
    239900   1347.9791      37533.6        20936.081      25280.977      3.9721239     -55805.006    
    240000   1459.0324      25766.299      33334.082      9047.4552      3.9727832     -55892.578    
    240100   1497.8161     -4710.5861      7472.3752      4822.8301      3.9251036     -55929.379    
    240200   1471.47       -467.0735       20728.727     -5224.0042      3.9570693     -55934.29     
    240300   1443.0529      25712.202      3954.2222      13268.768      3.9661311     -55946.549    
    240400   1374.1229     -8020.5957      13142.332     -8502.0605      3.9292926     -55937.063    
    240500   1233.3963     -3720.7585      1495.8872      22.862953      3.9501495     -55870.478    
    240600   1384.6288      3246.7014      17960.479     -14631.985      3.9370214     -55954.778    
    240700   1401.0488      23065.294      22917.796      1633.7728      3.9331031     -55963.929    
    240800   1428.522       1836.2274      38930.372      18314.256      3.9764904     -55980.693    
    240900   1413.3911      20816.486      16328.939      20347.291      4.0080939     -55970.628    
    241000   1332.2965      24692.082      17896.577      37408.755      4.0040021     -55931.367    
    241100   1345.2156      7354.0145      27092.843      21060.69       3.972884      -55943.527    
    241200   1378.9112      4086.8915      32037.166      24256.921      3.9628842     -55963.692    
    241300   1298.0249      1889.783      -6101.5316      11955.283      3.9167211     -55903.776    
    241400   1451.8556      6465.5541     -1929.2643     -4319.2529      3.9341429     -55957.085    
    241500   1426.5001     -2866.72       -3147.695       9570.5747      3.9561718     -55914.131    
    241600   1436.1042      13177.04       10068.663      13208.741      3.9607276     -55895.93     
    241700   1459.0991     -6856.9461      4284.6018      1594.7755      3.9695265     -55906.454    
    241800   1505.3967      18773.882     -11499.106      2610.1459      3.9545398     -55940.628    
    241900   1360.9776      20384.353      9193.998       9189.0805      3.9677054     -55901.67     
    242000   1340.8468      28033.2        28720.909      14321.151      3.9806266     -55944.754    
    242100   1240.5559      15573.841      8820.8595      24368.768      4.0253535     -55930.003    
    242200   1349.1478     -7582.6553     -17969.94       7923.7801      3.9875773     -55997.545    
    242300   1418.0017     -16871.012     -12528.501     -26045.045      3.9341951     -56028.336    
    242400   1236.8788     -17135.034      914.25124     -7550.2925      3.9499844     -55903.566    
    242500   1275.0214     -16151.037     -26933.795     -8633.2795      3.9084808     -55871.891    
    242600   1453.9418     -956.02226     -30910.261      5408.0303      3.9744676     -55925.275    
    242700   1502.8312      7914.2393     -9416.2326      29461.312      3.9976432     -55938.442    
    242800   1378.0069     -2917.7265     -11354.971      2719.6177      3.8856443     -55878.198    
    242900   1277.9345      5392.4877     -3628.794       26211.119      3.979631      -55830.482    
    243000   1321.7664     -2312.6829     -2865.2176     -5422.5532      3.9244399     -55870.815    
    243100   1351.8227     -3104.6568     -23436.921      1696.5197      3.9244591     -55908.842    
    243200   1356.2591     -14346.76       13774.559      2449.9187      3.9476463     -55939.524    
    243300   1407.0026     -13213.803      7889.1936     -31870.365      3.8991097     -56001.366    
    243400   1261.2836      4594.2051      23151.398     -9458.7338      3.9552763     -55955.385    
    243500   1237.5366      3721.7379      2174.9665      3662.2422      3.96428       -55984.39     
    243600   1268.7629      29462.456      21657.355     -20297.563      3.9960247     -56045.253    
    243700   1188.7249      2426.5539      29615.83       13729.719      3.9973522     -56032.093    
    243800   1195.6914      34871.606      3149.8794      7777.0125      4.0032803     -56047.594    
    243900   1211.4411      4726.2976      3929.6835      9683.2865      3.9831792     -56009.722    
    244000   1211.6915     -5025.4062     -2997.0069     -15061.637      3.920021      -55934.919    
    244100   1249.372       24844.271     -16516.103     -5248.6794      3.938225      -55902.479    
    244200   1269.9532      8467.2247      19550.225      2146.9219      3.9520662     -55882.335    
    244300   1463.7656      24054.084      16358.747     -10947.27       3.9485378     -55956.592    
    244400   1360.7644      28160.703      29084.544     -4725.0385      3.9470803     -55891.926    
    244500   1388.3438      19207.208      45413.872      21310.723      4.0244622     -55904.281    
    244600   1401.9978     -2928.0083      24477.429     -467.11404      3.9179354     -55926.641    
    244700   1347.4941      498.05796      9745.3661      10100.598      3.9576549     -55928.367    
    244800   1328.2617      29111.306      28056.957      15776.722      3.9653511     -55954.496    
    244900   1234.811       23546.012      15537.28       13888.722      3.973629      -55945.624    
    245000   1303.7139      27840.494      16789.441     -8974.9537      3.9827749     -56010.419    
    245100   1261.703      -19726.937     -14989.612      6531.3828      3.9577247     -55990.894    
    245200   1395.5167     -4216.7136     -1197.4356     -18859.928      4.0119878     -56044.436    
    245300   1305.009      -8370.316       5578.3539     -8669.9417      3.9378908     -55925.572    
    245400   1485.2297     -16580.245      4537.4807     -31811.927      3.9364192     -55952.897    
    245500   1365.091      -5631.4475      11983.287     -16388.586      3.9243329     -55873.179    
    245600   1495.7977      12950.408      3131.3936      2431.0694      3.9024239     -55952.31     
    245700   1401.0575      17543.142      24508.066      13658.667      3.9395711     -55914.921    
    245800   1388.8987      19791.939      8748.6697     -2065.3757      3.9693725     -55937.902    
    245900   1205.0114      3172.9202      18900.323     -13800.296      3.9388592     -55874.093    
    246000   1312.6279      1209.9477     -3306.3885     -10804.24       3.9637427     -55957.666    
    246100   1240.4593     -868.76655      4061.5927      2020.9396      3.9474255     -55934.478    
    246200   1280.7974     -3091.8971      4775.2978     -32329.26       3.9282921     -55977.2      
    246300   1299.0695     -1479.202      -17066.378     -28111.837      3.9474238     -56001.072    
    246400   1139.7075     -16892.621     -24666.723      7381.9179      3.9762591     -55914.503    
    246500   1180.8604      4317.0363     -14342.605     -15740.205      3.9535566     -55908.39     
    246600   1315.2102      3858.1861      5698.2618      7328.3627      3.9937714     -55936.672    
    246700   1342.8393      10013.23       17089.947     -602.81264      4.0263312     -55909.107    
    246800   1385.1251      12090.55      -2981.1184     -5864.5882      3.9548351     -55903.711    
    246900   1394.1982      19996.753     -10127.242      16446.91       3.9811632     -55893.58     
    247000   1349.488       8507.8111     -491.89301      24108.407      3.9313769     -55877.151    
    247100   1309.2436      51544.075      25171.049      9806.4278      3.9954403     -55870.15     
    247200   1355.7638      9962.2974     -5397.6737      2853.0897      3.9559716     -55927.714    
    247300   1299.854       12458.665      1748.7481     -6853.9125      3.9607289     -55950.515    
    247400   1218.7733      13312.871      7136.5836     -1566.7447      3.9163648     -55947.352    
    247500   1260.1808      29477.685      17553.142     -17712.726      3.9781796     -55976.145    
    247600   1210.7333      1303.4643     -7834.0969     -14359.849      3.8967198     -55930.644    
    247700   1331.368      -2596.3256     -1141.1045     -6248.6422      3.9237185     -55960.836    
    247800   1315.9769      32285.926     -402.12452      11503.135      3.9423694     -55912.012    
    247900   1329.3608      4452.5332      2693.5171     -21705.148      3.9466616     -55903.377    
    248000   1354.174      -417.60302     -18350.107      11275.221      3.9629378     -55911.844    
    248100   1318.4383     -17090.493     -15721.319     -12053.659      3.9046291     -55887.724    
    248200   1292.5156      4708.1041     -14658.309      11483.037      3.928401      -55875.1      
    248300   1356.7478      5650.6954     -3092.7209     -2716.5771      3.9204122     -55923.393    
    248400   1248.6913      21380.04       7603.3091      1012.8978      3.9485514     -55885.465    
    248500   1311.623       29146.814      24169.74      -16234.253      3.9985551     -55943.737    
    248600   1354.5901      118.87848      5449.3038      6728.9679      3.9740293     -55990.987    
    248700   1286.5455      13211.809     -584.24031     -11383.464      3.9857687     -55981.11     
    248800   1221.9453      16307.444     -8558.42       -9509.6         3.9170809     -55972.298    
    248900   1291.6832     -7386.5603     -13150.043     -6798.197       3.9299663     -56031.238    
    249000   1236.4166      257.42045      2375.7546     -26097.85       3.9348285     -55998.683    
    249100   1263.6147     -14944.036     -7547.1455     -16824.241      3.9295747     -55982.751    
    249200   1319.1375     -12067.06       12711.238      904.7921       3.9591459     -55953.175    
    249300   1191.9671     -1168.1248     -3287.8106     -15196.586      3.9289353     -55834.052    
    249400   1435.857       953.41193     -19064.219     -26463.253      3.9276101     -55939.602    
    249500   1377.3824     -724.49506     -26658.509     -14060.74       3.9158143     -55904.575    
    249600   1317.9014     -26041.438     -24919.02      -11084.628      3.890315      -55880.346    
    249700   1362.2883      3569.6208     -10401.529     -21418.158      3.9748619     -55923.333    
    249800   1296.7942     -4128.6151     -8611.957      -3066.5973      3.9734487     -55913.429    
    249900   1296.5703     -25085.701     -6115.8834     -1195.3696      3.9374135     -55939.925    
    250000   1311.8994     -4043.7674     -28965.254     -6915.8147      3.9304391     -56001.751    
    250100   1207.7086      9319.8643      7207.323       4657.3717      3.979408      -55989.732    
    250200   1099.5919      23696.124      19859.833      18491.246      3.978165      -55941.822    
    250300   1216.3963      8497.7486      1874.6893      31052.283      3.9688747     -55983.066    
    250400   1240.1392      75.205378     -8840.0003      19960.874      4.0008945     -55945.063    
    250500   1358.1487     -10004.45      -21105.908      22868.597      4.0078724     -55958.502    
    250600   1311.7073      30599.111     -14877.598      22377.303      4.0187936     -55921.39     
    250700   1239.9477      36233.267      907.76267      31778.104      4.0237512     -55877.345    
    250800   1386.3276     -703.3277      -12065.319      3760.853       3.9463809     -55948.115    
    250900   1355.2736     -5047.2574     -23095.504      6108.8336      3.9458327     -55928.678    
    251000   1331.5552      8119.6549     -1835.4947      9724.8646      3.9653643     -55923.765    
    251100   1277.6149      20016.555     -3353.9244     -11205.072      3.9522979     -55913.741    
    251200   1358.0581     -16471.202     -26293.142     -613.59246      3.986351      -55985.823    
    251300   1166.0571     -21218.326     -28271.41      -14246.474      3.8983528     -55902.928    
    251400   1260.4858      2393.7634     -32905.791     -17517.805      3.9157012     -55971.769    
    251500   1201.3146      8749.1088     -11390.141      17130.319      3.9812427     -55951.923    
    251600   1209.3322      788.3932      -34157.019      14428.686      3.9730357     -55963.783    
    251700   1309.8508     -19630.722     -28492.029      8063.6784      3.9772998     -56009.701    
    251800   1255.1061     -15740.498     -8898.7607      1190.0584      3.9526732     -55948.42     
    251900   1273.8093     -10344.323      30655.162      31373.916      4.0167984     -55918.985    
    252000   1305.5163      14059.919      7255.3982      41348.065      4.0120205     -55892.912    
    252100   1414.7172     -1575.3162     -8358.158       12848.921      3.8943117     -55932.976    
    252200   1354.4646      13909.154      1828.9493      28254.562      3.9344492     -55894.506    
    252300   1375.9558      14962.375     -446.65827      3333.6845      3.9993656     -55921.499    
    252400   1387.4933     -5100.3138     -23885.808      6948.0581      3.984203      -55981.747    
    252500   1151.7933     -20278.404     -23598.994     -29751.786      3.9006373     -55918.838    
    252600   1216.2612     -8939.6635     -26537.139     -9655.2557      3.9522719     -55971.951    
    252700   1356.2307      17270.015     -8244.212       884.50557      3.9928644     -56043.217    
    252800   1234.5665      16389.525      11260.896      31306.69       4.0409045     -55957.597    
    252900   1324.8663      26439.563     -14084.509      17317.724      4.001121      -55989.128    
    253000   1282.6865      32021.653     -7275.8489     -502.23526      3.9452243     -55942.282    
    253100   1319.2752      4453.0677      14277.556      11746.707      3.957653      -55934.156    
    253200   1324.8868      20973.981      18385.121      16683.985      4.029219      -55898.265    
    253300   1379.0157      15175.445      3353.6373      27422.286      3.9893711     -55905.502    
    253400   1384.2756      20297.786     -7108.1462      22583.84       3.9729648     -55902.883    
    253500   1294.472       19117.502      2562.642       10958.292      3.9861532     -55893.718    
    253600   1327.8552      2791.8407     -31246.542     -6055.9952      3.9390602     -55972.709    
    253700   1277.0821      8168.7424     -14024.474      2542.7908      3.9682837     -55993.161    
    253800   1233.7733      4136.0723     -22601.514      10540.771      3.9512765     -55993.723    
    253900   1143.6587      36595.682      6022.4495     -6984.5121      4.05235       -55953.037    
    254000   1255.4538      31555.909     -14861.614      9881.7393      3.9886704     -56005.861    
    254100   1264.9326      7348.0981     -12672.176      16027.633      3.9861374     -55985.013    
    254200   1317.278      -2499.8751     -136.49917      4667.8223      3.9686207     -55970.337    
    254300   1395.0918     -13904.021     -29541.182      7381.0492      3.9682363     -55972.062    
    254400   1338.8648     -17365.53      -5054.7736      12488.109      4.0286887     -55916.396    
    254500   1407.6258     -1144.223      -6797.0498      6699.1853      3.9814062     -55957.093    
    254600   1367.2713     -14803.152      3450.7685     -2128.0942      3.95026       -55956.634    
    254700   1264.3012     -21553.599     -12982.827     -2006.7589      3.9312675     -55920.048    
    254800   1195.2054     -13033.553     -21630.096      10471.213      3.947613      -55899.299    
    254900   1312.3141     -24067.104     -28415.086     -17263.701      3.9396418     -55979.42     
    255000   1278.8375     -27935.122     -18701.972     -2909.0016      3.961508      -55971.568    
    255100   1247.5174     -10372.202     -24000.846      1985.5807      3.9822785     -55963.825    
    255200   1246.5307     -10169.735     -13896.856      8392.2207      3.9820161     -55961.171    
    255300   1408.6604     -17583.183      11331.712      10901.717      3.9947141     -56033.8      
    255400   1275.7381     -7981.5967      4089.0122     -387.86394      3.9769865     -55921.119    
    255500   1312.3357      14561.117     -15571.348      14175.545      3.9832538     -55867.782    
    255600   1414.6761     -31077.604     -34078.28      -12133.861      3.932191      -55886.976    
    255700   1449.2699     -3191.7056     -9779.1097      13944.519      3.9776755     -55903.116    
    255800   1314.9708      29407.988      30378.955      23310.653      4.0477606     -55860.299    
    255900   1450.5955      20652.432      12228.717      36177.05       4.0023961     -55979.27     
    256000   1232.4014      838.47588     -12042.727      20095.633      3.9773078     -55900.641    
    256100   1302.5934     -6416.0481     -21283.969      22229.675      4.0053465     -55966.256    
    256200   1247.4635     -4415.9023      9286.2668      13670.054      4.0397259     -55944.823    
    256300   1313.497      -19475.468     -17393.512      11352.477      3.9684666     -55993.818    
    256400   1278.5756     -10452.125     -2611.7103      20404.823      4.0272287     -55988.538    
    256500   1356.9439      23192.599      9129.3584      18463.535      4.0825093     -56042.283    
    256600   1121.8375      35955.044      10235.335      57933.495      4.0805495     -55929.637    
    256700   1170.6133      14819.586     -11711.252      4901.4973      4.0308226     -55979.283    
    256800   1254.0185      13475.91      -14626.795     -8208.7722      4.0132121     -56047.381    
    256900   1180.5061      18375.609     -23001.603      8073.9822      4.0125651     -56027.559    
    257000   1189.8479      3804.5544     -11193.569      4816.1852      3.9974816     -56045.677    
    257100   1159.1559     -12458.159     -16015.806      4133.8801      4.0117544     -56016.347    
    257200   1305.9645      6120.6362     -33583.01       18743.768      3.9877145     -56059.693    
    257300   1330.8576      12464.471     -3948.425       13958.258      4.03104       -56031.02     
    257400   1285.9293      3860.3752     -24534.803      14592.704      3.9866647     -55972.494    
    257500   1421.7626      31449.241      9990.3487     -3702.5563      3.9900428     -56038.998    
    257600   1322.7777      43275.694      18592.681      28441.871      4.0505022     -55998.409    
    257700   1259.2302      43348.023      14293.385      8028.3808      4.0279825     -55992.44     
    257800   1188.5229      20980.467      1994.3268      13875.085      4.0319305     -55984.663    
    257900   1125.8515      9692.9823     -30509.77      -13452.117      3.992802      -56022.249    
    258000   1162.9728     -30097.019     -36074.091      252.74844      3.9968027     -56091.322    
    258100   1088.5864     -13989.123     -7015.3401     -28020.423      4.0182989     -56054.471    
    258200   1197.8366     -9332.0777     -9160.3385     -9771.6558      3.9967274     -56097.098    
    258300   1152.2083      5318.9333     -27202.766      3894.5134      3.9841502     -56043.623    
    258400   1230.3578     -13285.048     -8559.8682     -4435.395       3.9685185     -56046.376    
    258500   1251.9189     -4808.3041      6942.8998     -4341.6152      4.0297835     -56024.238    
    258600   1338.1402      2083.2047      5098.5885      3780.1253      4.0023292     -56047.344    
    258700   1360.834      -8793.4375     -29627.966      1464.6398      3.9593505     -56056.694    
    258800   1250.9119      2625.8058      10313.618     -2688.3614      3.9946095     -55999.885    
    258900   1199.1135     -18008.134     -3698.2097      4346.615       3.9839983     -55982.265    
    259000   1255.7821     -21227.506     -5997.3367      13825.355      3.9798074     -56030.519    
    259100   1204.4551      5973.3241      12233.019     -4196.4732      4.0178195     -56047.595    
    259200   1324.6751      18962.461      3684.0894      16105.94       4.0381387     -56173.615    
    259300   1044.5276      10250.876      9777.3444      32620.856      4.0273594     -56047.67     
    259400   1237.1206      4515.7137     -6781.3495     -5159.7774      4.0351488     -56148.464    
    259500   1181.6986     -5857.9409     -24726.968     -13641.341      3.9945283     -56083.801    
    259600   1162.6152     -7773.1741     -27651.976     -9997.6464      3.9855774     -56042.499    
    259700   1243.2664     -14254.309     -43905.687     -2624.2218      3.9784718     -56058.99     
    259800   1139.4458      1553.273      -10431.174      23848.714      4.0533727     -55986.532    
    259900   1190.2014     -156.8794      -9559.5575      28900.369      4.0099205     -55995.313    
    260000   1264.9691      23418.429      13451.269      15435.628      4.0279099     -56017.565    
    260100   1304.3169      7370.8479     -10186.264      13691.099      4.0515068     -56029.807    
    260200   1229.5581      12717.554     -29189.361      16530.755      4.0556952     -55988.178    
    260300   1253.6698      26588.846     -2365.7475      4860.2711      4.0274226     -55994.348    
    260400   1308.5845      13818.67       16870.06       22683.294      4.0705609     -56016.737    
    260500   1303.328      -8612.4308      1965.8472      11364.213      3.9928031     -56030.034    
    260600   1302.1144     -9295.5166     -19339.882      2178.9599      3.9782548     -56060.315    
    260700   1230.2797     -21155.977     -14807.541     -3372.3497      4.0030226     -56058.971    
    260800   1208.7894     -18585.945     -8426.3166     -19600.493      4.0196449     -56088.258    
    260900   1124.7632      11225.232     -15848.334     -3338.3445      4.0543009     -56059.043    
    261000   1214.1972      8621.8566     -9568.7457     -9890.4124      4.0080696     -56115.879    
    261100   1260.2437      26172.211     -297.78649      31565.317      4.0878541     -56128.418    
    261200   1152.591       41098.719      34261.013      7119.8893      4.1080842     -56028.568    
    261300   1311.099       3091.174      -1009.4397     -16453.186      4.0206243     -56058.473    
    261400   1195.7096     -4417.2892     -9909.0396     -16929.551      4.0082461     -55957.341    
    261500   1271.6147      16245.376     -6136.4436     -18102.942      3.9987609     -55993.132    
    261600   1206.2698      34795.121      24886.199      24457.544      4.0646819     -55971.098    
    261700   1280.3799      23890.177     -4023.0393      6622.1162      3.9886753     -56034.753    
    261800   1350.9186      21033.28      -12188.371      1633.7453      4.0402002     -56090.04     
    261900   1260.7074     -7322.3922     -18861.074      17325.895      4.0130641     -56064.946    
    262000   1253.9715      7630.4465     -28556.31      -24941.216      3.9604248     -56086.25     
    262100   1182.7494     -24031.088     -21101.917     -12561.021      3.9685144     -56073.239    
    262200   1129.0667      2805.4694     -26414.344     -12089.847      3.9590521     -56071.368    
    262300   1093.1047      7503.322      -15384.263     -6531.3796      4.0022021     -56104.126    
    262400   1115.583      -15558.541     -17960.889     -5860.1172      4.0321543     -56153.984    
    262500   1112.1395     -7410.3164     -22018.186     -5629.5822      4.0295846     -56153.7      
    262600   1159.9237      3683.4243     -27918.973     -15244.567      4.021878      -56148.984    
    262700   1131.0889     -9297.1534     -5227.0076      5491.5704      4.0101087     -56077.302    
    262800   1183.7755      6451.2585     -7605.747       8019.9423      4.0235874     -56073.551    
    262900   1203.6419      4094.1668     -23064.068     -17093.938      4.0131898     -56060.371    
    263000   1224.6869      1057.647      -19110.677      9122.9997      4.0206575     -56049.817    
    263100   1152.7931      2205.5848     -18325.565      18232.255      4.0355651     -55989.616    
    263200   1184.2324      4564.3755      26809.683     -1698.7022      4.0277544     -55979.455    
    263300   1275.9253      33053.476     -1696.4393      25312.652      4.0521581     -56016.147    
    263400   1184.6256      35200.592      21925.355      24248.043      4.0757629     -55972.648    
    263500   1302.385       2865.2935     -17329.18      -2495.2946      3.9994361     -56059.879    
    263600   1208.3669     -110.7567      -27232.386     -18579.597      4.0107246     -56055.401    
    263700   1172.9002     -4598.7789     -35369.834     -11271.086      3.977491      -56093.763    
    263800   1196.0846     -3360.1492     -5512.2294      9132.8852      4.052056      -56124.631    
    263900   1150.0958      4656.1986      7780.5         5571.0714      4.0711763     -56100.573    
    264000   1099.1814      17223.556     -13.308882     -1945.6006      4.0204116     -56062.837    
    264100   1256.7982      6953.0811     -19800.25       4415.2605      4.0082456     -56123.706    
    264200   1178.8357      4923.5929      9537.7839      6840.22        4.0220042     -56055.215    
    264300   1178.4564      16706.089     -776.61026      147.47557      4.0274338     -56040.426    
    264400   1153.0126      7304.8042     -23474.076     -5001.6896      4.0094117     -56012.913    
    264500   1189.1548     -10797.32      -11132.779     -16792.102      3.9583215     -56028.161    
    264600   1181.5201     -1444.7778     -11511.886     -9962.9018      3.9818097     -56022.608    
    264700   1250.1382     -8146.2802     -25763.614     -23520.354      3.9816648     -56066.192    
    264800   1316.1632      243.37322      16018.666      4364.416       4.0609687     -56106.617    
    264900   1210.6818     -2336.9032      11131.936      4395.4453      4.0037333     -56058.482    
    265000   1232.6399      2694.1699     -10339.748      5345.7582      3.9980889     -56083.996    
    265100   1127.0978     -986.44824     -11438.117      192.17668      4.0132916     -56052.698    
    265200   1113.6611      10133.319      17830.966      13514.302      4.0658394     -56091.723    
    265300   1118.1411      17133.727     -5352.4626      19022.257      4.0411885     -56124.506    
    265400   1101.8547      5168.5155     -12488.966      15211.144      4.0591264     -56123.28     
    265500   1173.9331      7830.6855     -653.20099     -16048.529      4.027149      -56141.617    
    265600   1122.9875     -3807.3072      425.02304     -4122.0725      4.0022747     -56067.181    
    265700   1217.4359      16939.232      16824.869      2636.2704      4.0319967     -56071.206    
    265800   1219.598       8031.9586      1404.1952      19932.044      3.9898054     -56049.585    
    265900   1267.7323      24095.099      11141.289      15496.866      4.0416076     -56071.294    
    266000   1241.412       22870.741      18324.988      15775.425      4.0507448     -56054.535    
    266100   1252.4884      587.73982      4906.7745     -26932.701      4.0246291     -56062.62     
    266200   1192.2418     -24881.413     -31602.232     -16022.012      3.9811805     -56034.319    
    266300   1173.0304     -15796.098     -30424.617     -16487.124      3.9918053     -56044.695    
    266400   1240.2633     -3845.5729     -4207.5004     -4029.9274      4.0046612     -56118.448    
    266500   1118.4784      9358.2447      5338.6729     -1059.4942      4.0316584     -56095.068    
    266600   1083.2132      13413.081      4417.3537     -17214.046      4.0487501     -56102.954    
    266700   1122.667       6144.2175     -3311.5238      3915.9111      4.0499329     -56127.86     
    266800   1155.8976     -9727.9786      4838.0942      30128.322      4.0553941     -56119.41     
    266900   1170.3338     -5150.7169     -9308.9703      2760.7927      3.9646923     -56071.697    
    267000   1219.5946      37755.205      5699.4035      18921.186      4.0224856     -56048.1      
    267100   1299.4869      3857.1621     -718.24364      16844.211      3.9919309     -56081.536    
    267200   1208.3709      13661.797      16416.733      5589.8353      4.0266238     -56027.754    
    267300   1261.9073      13146.331     -4642.4804      18128.506      4.0297065     -56064.242    
    267400   1119.0783     -2577.6368      1632.3383     -15221.832      3.9856854     -56003.263    
    267500   1104.3311     -23390.45      -23380.549      2359.7779      4.0085161     -56028.145    
    267600   1182.1041      2596.1405     -20374.536      8515.7707      3.9735856     -56102.408    
    267700   1156.9913      15880.962     -11459.023     -4550.0868      4.0199356     -56118.333    
    267800   1201.3414     -4592.1942     -1045.1207     -8484.0449      4.0115263     -56155.175    
    267900   1007.9105      2378.6811     -21128.296      4152.2422      3.9986675     -56048.517    
    268000   1156.3819     -14782.699      15298.311      1628.0954      4.0266367     -56097.081    
    268100   1273.4742     -12394.169     -8572.1306     -9249.34        3.9739421     -56083.49     
    268200   1291.5268     -17203.637     -4946.3036      5504.0303      4.0330646     -56054.876    
    268300   1175.0754      17183.285      5241.4276     -7587.9579      4.0194835     -55984.072    
    268400   1221.003       7221.7118      17318.526     -296.77432      4.0163971     -56026.069    
    268500   1174.4542     -15393.713      1445.6997     -19520.009      3.9661902     -56025.749    
    268600   1262.9267     -13751.203     -5624.7796     -5013.7761      3.9802562     -56106.993    
    268700   1089.1197      1778.0445      14464.848     -1932.7089      4.0261821     -56046.421    
    268800   1140.652      -16695.592     -8150.152       6360.9441      3.9866719     -56094.499    
    268900   1130.9955     -14108.091      1395.1739      12437.112      3.9983641     -56092.219    
    269000   1183.3407      9550.147      -10036.022     -5062.1145      4.0173293     -56115.707    
    269100   1127.2812      8477.8702      33523.807      29218.874      4.0551879     -56071.154    
    269200   1212.8609      21090.127      38917.71       23319.954      4.0769798     -56104.418    
    269300   1201.0289     -5325.4141      1537.4305      4988.5568      4.0346831     -56082.642    
    269400   1234.4937     -15868.077     -886.0218      -1141.6047      4.0411369     -56087.041    
    269500   1197.6582      5285.5381     -17625.991      4315.6515      4.0030077     -56071.511    
    269600   1165.7313     -20613.143      8636.6025      2056.4395      3.9836515     -56059.807    
    269700   1282.2354      9683.2898      17673.686     -384.4071       4.0305175     -56125.878    
    269800   1236.7172     -12665.755     -8778.443       2723.1493      3.9707767     -56107.874    
    269900   1161.1139      4686.4758     -485.14029     -9878.701       4.0523727     -56080.479    
    270000   1214.112      -35171.935     -24668.412     -8844.1956      3.9874199     -56119.649    
    270100   1196.0862     -16481.837     -16506.688     -12510.485      3.9840886     -56121.412    
    270200   1019.9427      17853.623      28078.418      16323.996      4.0522144     -56051.61     
    270300   1099.1269      14810.658      2265.7734      6934.6717      4.0294404     -56118.947    
    270400   1082.2209     -8209.0235     -13360.45       383.22259      3.9857044     -56117.554    
    270500   1080.8401     -5423.1053      8475.6993     -3474.1641      4.0400329     -56107.129    
    270600   1040.4597     -3443.931      -14571.1        10055.417      4.0266527     -56054.189    
    270700   1139.0952     -9369.369       8280.447       13425.538      4.0302509     -56049.895    
    270800   1194.0403     -16088.172     -18908.153      6411.6725      4.0040141     -56053.351    
    270900   1224.6668      652.75669     -3165.475       5431.7474      4.0310241     -56060.398    
    271000   1146.2152     -7492.9392      6661.9184      26580.212      4.0176248     -56027.139    
    271100   1212.7546      29485.427      28978.286      15795.366      4.0362449     -56087.69     
    271200   1185.7353      48684.866      33695.948      27259.156      4.0820888     -56100.562    
    271300   1126.8557      25010.505      34747.672      22770.098      4.0870745     -56099.149    
    271400   1106.5672      22062.703      9824.8372     -2360.1277      4.0809168     -56116.161    
    271500   1128.9938      7304.7391      948.84041      19549.303      4.0448462     -56132.413    
    271600   1128.5796      24730.143      23461.762      11077.009      4.0734646     -56124.757    
    271700   1223.4171      1502.0135      6776.2308      56.162666      4.0381834     -56143.92     
    271800   1228.9875      5720.0433      11885.85       8296.1801      4.0098823     -56050.723    
    271900   1251.7117      2018.1008      884.48538      21880.901      4.0140879     -56027.81     
    272000   1244.253       26654.247     -6360.0275      22809.607      4.0238709     -56025.901    
    272100   1372.373      -4154.659      -5617.7598      4742.0991      3.9928523     -56124.238    
    272200   1206.093       16221.835      3556.2171     -24347.521      4.0381476     -56081.981    
    272300   1165.0491      16687.588      24752.296      4768.4074      4.0900066     -56098.611    
    272400   1075.9074      9936.7665      28821.004      41124.249      4.0897134     -56077.551    
    272500   1110.9419      15647.828      7311.3121      7226.406       4.0459738     -56109.33     
    272600   1220.6627      29870.623     -5903.5866      8093.8128      4.0377159     -56167.262    
    272700   1102.0744      30564.517      23028.936     -7955.2557      4.0808921     -56093.178    
    272800   1119.6232     -1952.7158      3766.0151     -2540.1289      4.0554929     -56083.072    
    272900   1130.666       5737.3684      1247.8407     -10153.393      4.0241906     -56049.145    
    273000   1140.7103      10311.406      20047.459      13542.818      4.0408071     -56010.729    
    273100   1318.5998     -22164.738     -18143.341     -17237.727      3.9816327     -56074.491    
    273200   1268.1384     -541.61021     -34134.138     -25604.55       3.9791837     -56039.072    
    273300   1235.3385      4801.2423     -4858.4552     -15284.398      3.9691864     -56047.236    
    273400   1183.7771      12541.967      18337.782     -2333.2668      4.0137811     -56058.063    
    273500   1146.8648      39899.281      14032.592     -3571.8463      4.0691013     -56061.53     
    273600   1011.4961      15486.825     -2485.6602      734.42271      4.0249604     -55996.797    
    273700   1251.9745      8336.7626      3784.2176     -4655.7917      4.0198292     -56131.641    
    273800   1011.9709     -7100.606       4535.0431     -6688.5263      3.9871872     -56007.804    
    273900   1180.9147     -11264.51      -3861.2976     -17130.007      4.0203449     -56102.171    
    274000   1159.1929     -2453.2198     -11878.767     -3711.4291      4.0351624     -56088.926    
    274100   1189.7859      3147.5868      14798.829      4173.7339      4.0460988     -56105.529    
    274200   1119.3756      2163.9638      34106.97      -2065.4358      4.0221773     -56083.256    
    274300   1215.0592     -10101.114     -9925.2815     -4827.4324      4.0235554     -56164.884    
    274400   1099.5328     -4170.3204     -11903.629     -2533.1885      4.024619      -56137.495    
    274500   1112.943       4354.6951     -10880.859      7678.7904      4.0267105     -56176.032    
    274600   1081.7447      20540.358      32156.267      30551.237      4.0975937     -56171.862    
    274700   1065.8689      14716.496      20572.344      37237.873      4.093968      -56157.816    
    274800   1162.5244      23000.467      16746.978      30047.47       4.0808533     -56166.346    
    274900   1145.85        9185.3286      20130.258      12118.829      4.0753474     -56098.033    
    275000   1186.4602      7923.6722     -540.41228      12538.223      4.0262106     -56100.941    
    275100   1260.5525      14539.587      1593.7042      9544.3243      4.0241685     -56133.382    
    275200   1153.9452     -7432.0774     -1614.6917     -20.167914      4.0270524     -56076.202    
    275300   1185.9363     -7499.3241      6454.366      -11013.518      4.0193954     -56107.537    
    275400   1076.0466      10571.619     -15875.847     -1300.8669      4.0095674     -56075.749    
    275500   1183.8805      305.85796      32654.927      9022.8984      4.0637151     -56162.826    
    275600   1060.8475      15902.725      11865.385      23940.41       4.0283137     -56127.686    
    275700   1140.0095      15029.987      1912.9959      10223.805      4.0609189     -56191.179    
    275800   1113.917      -11375.401     -1197.2799      3896.8329      4.0335139     -56183.312    
    275900   1024.3999     -18022.28       11268.965      22040.696      4.0122273     -56114.246    
    276000   1160.8672      10603.439     -9232.0027      6348.5882      4.0277754     -56115.054    
    276100   1177.2997     -4560.1052     -9202.0523      55.073321      3.9972215     -56078.216    
    276200   1212.1287     -12195.788     -26832.404     -14170.783      3.945652      -56085.073    
    276300   1227.7283     -27847.056     -26360.144     -43997.153      3.9668817     -56101.503    
    276400   1243.4826     -29159.483     -12200.927     -12356.035      4.0000748     -56136.816    
    276500   994.30164     -7931.1952     -18188.383     -2231.2264      3.9818551     -56034.489    
    276600   1178.5829      16901.829      7767.4472      11434.646      4.0581484     -56160.431    
    276700   1084.2087      11211.24       35326.823      8573.8626      4.0577528     -56122.281    
    276800   1042.3003      820.05714      6101.8661      1117.9641      4.0422153     -56109.563    
    276900   1146.0287     -15823.767     -14449.609     -13733.976      4.0026121     -56167.129    
    277000   1166.9883     -8744.4417     -20260.096     -11409.01       4.0196678     -56169.703    
    277100   1074.0282     -8380.7885     -3742.2758     -15825.745      4.0406495     -56085.731    
    277200   1203.1091     -8866.841      -21904.114      15663.347      3.9791336     -56107.064    
    277300   1148.1447      5115.2927      2085.7968      3947.0015      4.0192149     -56047.678    
    277400   1167.366      -8478.4204     -27312.722     -7809.3811      3.9888932     -56048.302    
    277500   1203.2353      65.084287      10013.052     -6724.8085      4.029967      -56082.887    
    277600   1073.8967      18550.093      3135.6651      9952.86        4.0091424     -56053.242    
    277700   1096.0323      1116.4639     -7751.3858     -6052.5689      4.0108383     -56111.384    
    277800   1068.8267      5568.2917      5301.0397      28324.536      4.0603333     -56117.6      
    277900   1090.9243      14869.166      21509.618      22843.28       4.0423659     -56135.003    
    278000   1044.6586      1729.1195      6891.1228      28592.154      4.0635027     -56101.943    
    278100   1142.598      -6152.84        1782.8354     -4207.6409      4.0136919     -56142.092    
    278200   1102.6072     -7319.5699     -5785.4145      14919.811      4.0362144     -56101.03     
    278300   1171.2882     -18625.066     -12916.058      9090.1009      4.0290604     -56116.51     
    278400   1210.3699      4120.9396     -28713.656      5392.5844      4.0109372     -56105.014    
    278500   1255.3746      18485.93      -6458.3214      3386.4333      4.0231717     -56084.325    
    278600   1109.6014     -14582.405     -7219.2325     -10391.279      3.9681252     -55970.208    
    278700   1277.4531     -3369.4696     -14630.562     -9128.0643      4.0039032     -56043.664    
    278800   1323.5196      4061.3506     -19062.087     -9940.1181      4.0034251     -56095.074    
    278900   1191.1454      3040.0008     -2949.3156     -1666.3778      3.9942409     -56101.126    
    279000   1112.9167      29096.962     -9779.5825     -1053.1696      4.0459987     -56102.881    
    279100   1134.8155     -9511.6372     -42597.817     -11468.77       3.9747055     -56135.127    
    279200   1021.2951     -242.77939     -7231.2885     -1776.0653      4.0167535     -56083.954    
    279300   1043.7017     -12338.456      109.94712     -9710.5628      4.0132477     -56100.173    
    279400   1052.1797      2494.1874     -35185.953     -11697.739      4.0108098     -56100.709    
    279500   1074.6897      1329.3699     -37136.198     -20391.455      4.0140204     -56103.864    
    279600   1089.3483      8980.3659     -5603.5768     -21649.214      4.0467084     -56094.472    
    279700   1093.9447      8401.6359     -18094.499     -22498.02       4.0297563     -56069.519    
    279800   1096.9755     -11485.632     -36067.067     -28315.752      3.9587609     -56031.209    
    279900   1164.1991      4833.4196     -11334.738      11888.037      4.0176803     -56043.735    
    280000   1133.5202      20205.084      16157.243      31305.914      4.0359581     -56014.255    
    280100   1192.8856      48147.229      16184.465      12262.623      4.0643719     -56067.426    
    280200   1199.7547      10805.267      3826.008      -65.487578      4.0408174     -56134.74     
    280300   1135.6464     -23034.367     -28383.901     -27616.565      3.978106      -56147.356    
    280400   1010.354      -27877.796     -18948.563     -4082.9725      4.0017932     -56094.271    
    280500   1085.6197     -13725.016      20996.762      9876.59        4.0672368     -56147.604    
    280600   1045.6155      26875.781      3064.6219      21274.913      4.0404578     -56124.073    
    280700   1071.5174      34149.631      11646.097      11257.662      4.0253114     -56127.006    
    280800   1093.8976      6396.628       10600.482     -24.926022      4.0411648     -56125.674    
    280900   1144.2758     -5329.0028     -1103.4078      3746.8039      4.024213      -56141.834    
    281000   1128.6479      1842.1831     -6186.7513      20995.003      4.0607556     -56111.018    
    281100   1147.8517      32726.726      16646.252     -11825.847      4.0643569     -56098.715    
    281200   1188.088       23732.247      24685.474     -1974.8249      4.03143       -56098.577    
    281300   1169.9617      20224.814      24344.492      10249.017      4.0509947     -56073.051    
    281400   1243.8152      8302.2585      8264.6617      26771.435      4.0296696     -56129.077    
    281500   1092.2488     -18345.855      254.16208     -4950.9442      4.0034309     -56086.073    
    281600   1075.5351      660.78544     -12962.136     -14809.838      4.046374      -56114.415    
    281700   1109.8505     -6311.0264     -8233.9236      8047.1003      4.0026352     -56158.67     
    281800   1066.0884      9035.2703     -25636.487      9431.8278      4.0230607     -56149.307    
    281900   1077.6893     -25709.405      3025.566      -17397.39       4.0250827     -56161.291    
    282000   1085.6542     -3927.5859     -6803.498      -5407.7422      4.0176767     -56159.96     
    282100   1123.7891      1511.6092     -3609.4316      9149.1382      4.0277394     -56162.666    
    282200   1167.6515     -10171.369     -9840.5062     -1664.8378      4.0283303     -56161.241    
    282300   1062.3971     -19141.605      775.88627      3774.1231      3.994258      -56046.706    
    282400   1187.0294     -29714.233     -24287.965     -10847.933      3.9360901     -56062.925    
    282500   1166.1807     -22395.724     -15807.725     -3574.6628      3.9932442     -56042.928    
    282600   1302.6521      499.87715     -24805.103     -9901.9172      3.9997876     -56138.759    
    282700   1143.8476     -21552.552     -17260.212     -5046.4134      3.9495258     -56092.387    
    282800   1086.7793     -1716.4996     -10941.893     -351.66221      3.9852592     -56083.061    
    282900   1192.4298      6259.9714     -10522.299     -9937.3771      4.0037899     -56166.209    
    283000   1101.4179     -6334.7517     -18638.351      5600.7515      4.0026273     -56138.065    
    283100   1113.508      -36201.337     -12277.054     -4889.5451      3.9953208     -56163.859    
    283200   1055.1179     -9736.786      -6888.6172     -9700.9736      4.0376308     -56144.387    
    283300   1021.4538     -10173.935     -15198.604     -7775.3665      4.0128074     -56142.457    
    283400   1036.4856     -25528.131     -8581.1761     -2804.2375      3.9878235     -56155.701    
    283500   1085.4052      15123.028     -1706.3513     -17876.273      4.0243368     -56174.941    
    283600   1174.0042      7787.1945      696.77465      20723.812      4.04301       -56177.778    
    283700   1142.8949     -6000.4422      1291.4463     -7190.1481      3.9764376     -56106.695    
    283800   1192.7152     -15197.534     -10669.942      3910.8186      3.9890257     -56108.865    
    283900   1207.3858      14996.826     -9661.4905     -11902.66       4.0272664     -56112.135    
    284000   1104.1266     -6856.159      -1413.9457      1326.6506      4.0114328     -56075.968    
    284100   1145.5754     -4904.1664      84.008026     -5120.015       4.0329149     -56138.757    
    284200   1079.0939      583.72018     -6483.1971      6482.2515      4.0360683     -56140.8      
    284300   987.38397     -2206.7408      17289.648      17165.442      4.0470795     -56110.25     
    284400   1037.3149      1202.2797     -17767.104      1614.7993      3.9875912     -56143.092    
    284500   1104.7928     -10873.528     -13754.837     -3957.8152      4.0163922     -56176.461    
    284600   1094.3333     -24201.96      -23697.739     -14056.86       4.0046715     -56167.642    
    284700   1026.37        1414.5321     -10044.207     -6112.8813      4.0189026     -56126.536    
    284800   1066.1148      12533.047     -7082.113       15229.115      4.0284203     -56144.421    
    284900   987.61672      17933.266      27902.723      25495.749      4.0601147     -56093.563    
    285000   1033.2977      11386.688      7368.8862      33156.34       4.0923882     -56109.791    
    285100   1098.2893      10717.081      1729.7937      33123.157      4.0882573     -56132.007    
    285200   1039.0475      1803.0833     -1466.3421      5094.9277      4.010442      -56092.02     
    285300   1166.7576      3806.5125      239.44425     -261.03557      4.0183188     -56158.99     
    285400   1108.6527      2912.9131     -10322.536      22331.72       4.0402234     -56132.936    
    285500   1099.5563     -1703.0749     -1511.1233      18774.893      4.0615034     -56141.638    
    285600   1122.4121      2555.3616     -5637.5009      20729.141      4.0910963     -56180.323    
    285700   983.72935      6503.9369     -966.30979      18548.782      4.0165386     -56134.646    
    285800   1000.3398     -6466.9453     -16599.241      8593.6058      4.0007407     -56164.579    
    285900   904.48837     -15753.825     -12884.847      14865.733      4.0263952     -56119.161    
    286000   1012.0602     -2195.0346      25157.16       5220.6989      4.0462254     -56166.7      
    286100   1014.7036      6627.6666      20806.087      30374.622      4.04711       -56128.183    
    286200   1121.554       22351.099      16064.647      8857.7901      4.0788364     -56131.434    
    286300   1116.6474      1623.8483      22808.836     -3011.1858      4.0474069     -56101.622    
    286400   1174.9588     -5560.2536      6447.1525     -200.18439      4.0427308     -56131.215    
    286500   1095.5263      1137.3914      5755.0867      6269.0911      4.0419946     -56107.519    
    286600   1013.7896     -10027.734     -9335.2603     -10590.619      4.011271      -56094.631    
    286700   1142.2758     -7643.244      -6640.5235     -10983.107      4.0239219     -56190.158    
    286800   988.98816     -308.14166     -12184.219      7361.3704      4.0455905     -56125.516    
    286900   1068.959      -4060.2115     -7770.3408     -8111.0348      4.0444884     -56177.915    
    287000   999.26369      5199.9079      1264.2925      16907.202      4.0485567     -56139.869    
    287100   1044.1395      4646.4016      6744.9105     -6400.4562      4.0575143     -56161.677    
    287200   1026.2119     -6492.7699     -7399.0955     -9470.2615      4.0122519     -56150.244    
    287300   1009.2501      11936.689      22041.158      6016.4546      4.0838493     -56133.899    
    287400   1068.5816     -3790.661      -13240.384     -221.69136      4.057628      -56145.878    
    287500   1151.0511     -19660.631     -5800.9844     -1936.0604      4.0268412     -56140.815    
    287600   1123.2134     -971.66589     -6722.1458      4203.9027      4.0380929     -56085.59     
    287700   1126.5596      4042.5544      6156.8644      3641.4075      4.0221745     -56081.306    
    287800   1120.956      -4022.861      -17834.298      4247.6836      3.9799036     -56096.33     
    287900   1114.0567      1766.5017      3369.7879     -863.14008      4.0386619     -56137.189    
    288000   1054.0204     -20353.449     -4004.0599     -10809.021      4.0530645     -56146.451    
    288100   1118.8779     -27934.715     -8849.533      -968.7713       4.0319318     -56202.079    
    288200   1010.0216      14855.36       13503.208      9598.9153      4.0417487     -56150.668    
    288300   1100.567       16418.588      21356.295      30469.059      4.1225211     -56199.619    
    288400   1014.6417     -15245.158      3491.5387     -2896.844       4.046146      -56156.301    
    288500   1083.3766     -38406.115     -16716.871     -24659.737      3.9903581     -56191.852    
    288600   1025.4916     -19954.504     -26760.325     -7874.3535      4.0061183     -56146.637    
    288700   978.44364     -28508.37      -21390.527     -14197.646      3.9573908     -56101.345    
    288800   1054.7407     -10625.218     -37216.67      -34249.08       3.9870919     -56110.249    
    288900   1064.965      -5573.1385     -22650.931     -20583.319      3.984676      -56082.862    
    289000   1194.3434     -9957.8806     -14827.674      9796.4488      4.0100067     -56143.123    
    289100   1135.7747     -11103.417      16312.858     -21953.862      4.0084354     -56128.205    
    289200   1006.9871      8002.8322      5647.9685     -4025.134       4.0575065     -56106.495    
    289300   1019.5271     -4449.2477      2108.0159     -6655.6522      4.0613847     -56152.896    
    289400   1010.5947     -103.29891      3503.4374     -21331.018      4.0706386     -56166.876    
    289500   1061.0941     -16731.804     -6247.6123     -18055.072      4.0227944     -56201.29     
    289600   1043.9904      2989.3847     -21735.261     -7854.699       4.0217197     -56191.194    
    289700   1051.3985      10976.218      18385.931     -885.13726      4.0621797     -56190.474    
    289800   1098.2976     -1586.8645      19555.972      31395.145      4.0990709     -56210.349    
    289900   1035.3639      11628.031      8050.1945      31848.832      4.0598132     -56159.31     
    290000   1046.7031      18323.357      12390.045      3025.4952      4.0451747     -56132.256    
    290100   1123.3287     -3309.3354      6369.8821      14870.679      4.0629457     -56132.134    
    290200   1071.3223     -6860.7853      6075.8133     -1472.0062      4.0521853     -56082.627    
    290300   1192.2723      6422.9051     -14047.108      1076.6614      4.0270167     -56143.078    
    290400   1193.5585      8980.3225      11716.561      8808.9745      4.0583856     -56174.881    
    290500   1080.0061      11636.055      16997.046      12972.988      4.0853379     -56179.11     
    290600   921.58215      3272.8294      21882.47       8303.9488      4.1091505     -56117.064    
    290700   1046.1427      5423.2651     -6750.5614      2080.5254      4.0431327     -56194.359    
    290800   1072.7862     -2132.3351     -33830.478      11045.455      4.0203558     -56212.05     
    290900   1052.6143      534.75605     -15291.367     -2786.0773      4.0312904     -56199.622    
    291000   903.6007       15534.525     -13188.572     -1052.5356      4.047079      -56106.587    
    291100   1002.5088     -1205.7057     -12874.935      13121.259      4.0183149     -56144.557    
    291200   1093.1248      5174.1584      10856.929      4510.4913      4.0336409     -56165.636    
    291300   1066.7789     -2289.0961      25763.974      5635.3671      4.0791568     -56127.911    
    291400   1083.5614      16193.753      497.70283      23691.919      4.0651524     -56120.212    
    291500   1095.119       4728.7858      3391.3285     -3493.313       4.0409937     -56124.583    
    291600   1011.4297     -14074.157     -9608.1119     -1431.1442      4.0050933     -56107.593    
    291700   1029.8698     -9815.1696     -12169.187     -20636.522      4.0133446     -56168.238    
    291800   1054.5435     -1863.3412     -18261.598     -11964.674      4.0420137     -56226.266    
    291900   1001.3458     -8732.8619      11333.422      6168.0204      4.1084298     -56216.395    
    292000   1031.3659      12258.274      17614.147     -1198.1456      4.0576856     -56231.789    
    292100   924.79883      15842.097      18657.308      22581.679      4.0505551     -56161.198    
    292200   1060.0906     -2595.613       16525.447      26276.259      4.0915812     -56210.551    
    292300   1044.2348      152.30496      25803.272      16564.412      4.0718497     -56167.428    
    292400   1054.5579      25997.179      5500.0757      2321.3279      4.0370986     -56146.906    
    292500   1026.5168      32535.62       8609.3457      11504.216      4.0657126     -56132.42     
    292600   1057.6531      2624.3451     -331.64001      5096.8292      4.0727159     -56155.266    
    292700   1040.284      -18577.355     -4757.6592     -7081.6099      4.0297622     -56143.002    
    292800   1014.1821      1661.2565     -18968.566     -20193.033      4.0137924     -56138.034    
    292900   1030.0222      9745.6431      1689.8538      12337.963      4.0778235     -56154.351    
    293000   1082.7605     -12496.456      9977.9979     -16902.785      4.0556949     -56190.718    
    293100   1000.0285     -5098.0498     -5210.851       2711.0468      4.0774827     -56155.429    
    293200   1028.0486     -1068.1305     -7903.8423     -19023.787      4.0402831     -56182.862    
    293300   1102.5246     -4507.6461      13025.959     -11953.634      4.0774432     -56236.9      
    293400   956.20687      19960.651      6978.7569     -235.32253      4.0869263     -56169.338    
    293500   968.96853     -1224.4384      3958.1843     -2950.7343      4.0602389     -56188.99     
    293600   1040.5244      4240.9008      1065.5457     -2664.9624      4.0605087     -56251.56     
    293700   938.74375      7447.5818     -2995.8824     -5940.0292      4.054189      -56230.364    
    293800   989.79683      3167.8999      10551.309      6789.7487      4.1078402     -56279.466    
    293900   898.20222      11393.605     -331.65656      12130.428      4.0717811     -56225.932    
    294000   969.15766      14839.563      11377.184     -3412.3589      4.0770558     -56237.368    
    294100   966.6576       4782.2785      12143.63       22733.31       4.0968186     -56190.773    
    294200   984.2408       182.32593      8011.1462     -9113.8672      4.0496092     -56169.939    
    294300   1059.1065      19901.009      1036.0675     -6102.343       4.074885      -56194.187    
    294400   1027.4546      15476.715      10729.848      2461.3932      4.0780878     -56174.058    
    294500   943.4213       14695.883      3341.0031     -5416.2717      4.1019077     -56132.649    
    294600   1013.3305     -17867.362     -4260.1857      9291.6953      4.06562       -56175.599    
    294700   1023.0182     -13709.005     -281.07451      21162.686      4.0670352     -56192.109    
    294800   1055.2171     -7717.0022     -12367.439      9748.5634      4.0534218     -56227.573    
    294900   906.24833      21301.099     -8815.0625     -11081.241      4.0577396     -56184.366    
    295000   907.73721     -5577.8772      5356.5986      542.22112      4.0602153     -56221.233    
    295100   927.39294      1552.8651      41968.681      4749.1695      4.1350379     -56249.884    
    295200   954.51001      21530.273      9186.182       8529.53        4.0872816     -56253.807    
    295300   966.58899      4234.7309      28001.841      31540.456      4.103477      -56228.633    
    295400   995.71103      22552.817      22252.539      19486.021      4.0886606     -56205.252    
    295500   1000.3248      27310.429      27864.673      16720.943      4.0821464     -56195.698    
    295600   1063.4156      13167.347     -3667.6381      16026.584      4.0776153     -56222.046    
    295700   1050.8389     -18514.407     -7243.5403      7265.4941      4.0489371     -56202.763    
    295800   1008.1612     -5942.9073      30181.742      10507.856      4.1031319     -56168.01     
    295900   963.33077      2733.7059     -7375.522       9551.8246      4.038964      -56134.292    
    296000   1017.1068     -13450.837     -657.97532     -1542.3728      4.0373184     -56152.39     
    296100   1055.5884     -711.27314     -2277.0379     -15189.951      4.0106098     -56169.772    
    296200   1049.3022     -30152.357     -9564.1908      3984.414       4.0289537     -56183.583    
    296300   940.45128     -22437.885     -9696.9621     -8425.7599      4.0038356     -56166.529    
    296400   972.45365     -4669.4325     -1674.9769     -13374.118      4.0408323     -56215.65     
    296500   947.49316      3584.7906      7599.6377      13395.6        4.0878066     -56211.947    
    296600   1009.7655      10003.634      3757.7075      2370.4286      4.1086525     -56246.575    
    296700   963.17381     -980.57835     -10224.633      1804.25        4.0424747     -56211.091    
    296800   990.27896     -3483.3483      5614.9146     -22210.451      4.0706833     -56204.974    
    296900   973.16474     -9420.3489      13294.853     -4512.909       4.0690393     -56155.044    
    297000   1107.3519     -11404.687     -6334.0887     -28722.638      4.0376581     -56177.102    
    297100   979.50562     -3184.646      -19398.297     -9039.6682      4.0440364     -56093.121    
    297200   1044.0886     -1194.8567     -28403.659     -23355.815      4.0481545     -56137.65     
    297300   1028.3971     -20669.318     -697.01315     -28366.274      4.0189463     -56147.025    
    297400   976.03704     -14358.33       8702.4686     -3177.9546      4.0424377     -56146.408    
    297500   1068.0584     -5206.377      -4454.0055      2094.4037      4.0422569     -56221.959    
    297600   1048.9013      8271.9916     -11990.676      11581.797      4.0407784     -56227.087    
    297700   986.67244      25433.595      15653.419      22932.551      4.1068796     -56202.813    
    297800   955.53497      10274.942      20375.947      14110.912      4.106439      -56193.669    
    297900   913.3363      -9194.6735      15265.126     -20484.683      4.0695066     -56178.364    
    298000   1022.1118     -2842.4366     -6343.8923     -11275.494      4.0530523     -56235.905    
    298100   929.74815     -4019.4649     -23215.536     -25023.973      3.9930604     -56180.222    
    298200   950.41995     -22314.194     -26832.679     -43582.439      3.9740341     -56175.235    
    298300   996.53172     -15618.293      3615.0603     -6549.3341      4.0534011     -56156.682    
    298400   1066.4889      30528.105      6988.4644     -664.24701      4.1033757     -56167.488    
    298500   1064.6224      39643.6        13636.595      13478.047      4.1111022     -56158.008    
    298600   1075.2932      20791.047      11215.091      24267.203      4.0886636     -56175.962    
    298700   1019.0273      4558.4188     -2604.8301      17989.967      4.0535892     -56178.062    
    298800   976.46647     -20872.387      6683.1378     -13296.602      4.0418734     -56195.56     
    298900   923.4529      -14391.464     -5749.5026     -21137.655      4.0360563     -56189.232    
    299000   958.34956     -25124.804     -14254.032     -14634.863      4.014801      -56215.905    
    299100   906.65821     -16345.99      -3485.3281     -12524.873      4.0708997     -56187.273    
    299200   1005.0063      754.7575       8713.5977     -2119.445       4.0977579     -56233.052    
    299300   977.49072      3137.5675     -2484.3706     -5633.6437      4.0410832     -56206.898    
    299400   1015.588       483.62394      9302.7473      13637.748      4.0808717     -56212.403    
    299500   1032.1339     -3918.4589     -41.240794      18570.614      4.0537106     -56197.795    
    299600   1037.233      -9832.1178     -8589.9807     -2786.2336      4.0114309     -56154.62     
    299700   1054.3151     -10043.126     -16049.128     -16482.87       4.0203639     -56131.081    
    299800   1096.1435      9247.2001     -7886.2787     -18977.126      4.0323786     -56147.734    
    299900   1105.2809     -17750.828     -9744.8797     -24135.688      3.9967526     -56182.636    
    300000   1008.5477     -22404.103     -11079.194     -5826.9981      4.043386      -56184.207    
    300100   942.21444     -6221.1443     -13106.683     -14142.829      4.0196557     -56175.154    
    300200   966.52844      8394.3419     -11276.742      11220.655      4.0520805     -56201.434    
    300300   1008.5697     -990.69276      13674.73       15039.778      4.1013509     -56239.023    
    300400   968.88356      20693.086      6210.6738     -166.74527      4.0804184     -56222.126    
    300500   996.83878      6870.0026     -13531.082     -1401.7428      4.0713531     -56245.71     
    300600   930.53502      7750.3566      3435.5277      4024.5505      4.1126219     -56215.486    
    300700   906.29437     -3785.7123     -2297.2414     -23523.13       4.0636179     -56211.948    
    300800   865.25044     -22417.492     -44094.572     -14757.713      3.9714635     -56190.824    
    300900   893.70326      7261.5359     -8433.3704     -5894.9992      4.0631781     -56200.008    
    301000   943.62733      7173.8745      13388.981      13386.736      4.0893142     -56204.998    
    301100   983.05693      5646.6229      435.54145      2846.3704      4.0498302     -56191.879    
    301200   948.17094      1889.4409      18752.362      4692.4239      4.0868679     -56150.344    
    301300   1003.3889     -12344.381      7576.8181      11962.474      4.0535938     -56174.513    
    301400   1048.7656      11821.686      6476.6115      1889.7875      4.0862057     -56211.346    
    301500   1056.9858      4781.1486     -4864.3739     -14952.678      4.0363229     -56244.032    
    301600   988.8819      -3664.9678      9516.4628     -15154.769      4.0686423     -56254.776    
    301700   900.22594     -1519.484      -6985.8707      16373.86       4.1010942     -56242.482    
    301800   891.51112     -8277.5095     -3970.5545     -6313.3681      4.0716855     -56243.959    
    301900   938.3536       10308.676     -13119.052     -2205.4979      4.0659543     -56261.388    
    302000   937.4933      -6259.9288     -13915.682     -5223.0384      4.0250307     -56242.809    
    302100   912.94911     -19462.279     -16147.841     -16509.872      4.0252245     -56207.977    
    302200   929.334       -14574.467     -19838.598     -18029.664      4.0269754     -56190.457    
    302300   1030.6432     -9175.2038      8852.8279     -6405.0432      4.0622892     -56225.342    
    302400   969.55702      6076.0348      10377.116      9535.5621      4.0671964     -56185.057    
    302500   1003.9916      11628.297      17654.524      7526.5949      4.0774656     -56208.781    
    302600   998.8425       16662.344      5109.7208      21733.365      4.1171822     -56222.273    
    302700   898.20335      3976.6132      3553.0395      1640.0168      4.0657379     -56192.773    
    302800   905.41865      7070.4002      4240.3534      6814.9813      4.0797167     -56221.781    
    302900   808.85236      31949.261      7408.081       18144.741      4.0999549     -56212.673    
    303000   909.45895      18495.392      14578.183      31823.971      4.1240811     -56325.134    
    303100   866.29431      15431.671      23338.391      37036.983      4.1298657     -56311.504    
    303200   867.42109      13699.513      25736.042      17032.058      4.1047381     -56299.205    
    303300   863.58375      29112.839      16860.697      16810.593      4.0790332     -56267.169    
    303400   893.39476      18418.354     -5317.6783      18534.218      4.0746665     -56246.061    
    303500   956.77604      8853.924      -6852.7207      7656.6268      4.0464537     -56248.118    
    303600   901.61515      28095.258      33958.76       974.0777       4.1344759     -56197.991    
    303700   1011.0404      19900.907      14549.533      22991.645      4.1027055     -56241.086    
    303800   997.38227     -3124.5469     -3064.7659      7395.9442      4.0778318     -56220.045    
    303900   1057.1511      7888.33        1533.7815     -14431.848      4.0815264     -56252.543    
    304000   920.36858     -127.90711      18461.396     -2952.1087      4.0479668     -56186.521    
    304100   1010.0569      5893.6848      133.19938     -9994.5825      4.0693681     -56257.005    
    304200   931.3992      -4672.2703     -33830.284     -15546.775      4.0221075     -56249.685    
    304300   849.96076     -10285.607     -10247.842     -5800.143       4.0311184     -56236.303    
    304400   885.9426      -15252.165     -15986.94      -10646.012      4.0232751     -56267.832    
    304500   834.80346     -15363.12      -5013.2495      1758.9194      4.0267911     -56236.008    
    304600   894.25095      6157.1937     -5862.8519     -1898.1976      4.053095      -56254.151    
    304700   928.22411     -4782.1978      17776.233      7872.8711      4.0723022     -56253.958    
    304800   929.54977      30499.504      17742.211      18831.078      4.1243655     -56233.933    
    304900   875.07219      31547.662      14598.443      14246.719      4.0920697     -56195.629    
    305000   1037.4157      4778.8865     -13623.187     -3886.8076      4.0658303     -56276.845    
    305100   913.60517     -6113.9189     -5748.0512     -10346.284      4.0888287     -56207.004    
    305200   886.11677     -1914.0687     -5628.4788     -7305.2967      4.0649465     -56189.241    
    305300   941.18768     -3927.7636      8239.9562     -936.62067      4.0946343     -56214.19     
    305400   959.96813     -698.71721     -3616.933      -4736.6904      4.0794295     -56222.305    
    305500   935.24578     -4707.7901     -11178.007     -14676.208      4.0180743     -56209.387    
    305600   953.225        19145.638     -9165.5287     -2223.3907      4.0848822     -56230.825    
    305700   904.95358     -13634.645     -4867.0096     -35352.56       4.0504302     -56227.809    
    305800   828.44884     -27199.345     -22039.543     -23915.343      4.0012785     -56216.835    
    305900   868.46691      9884.139      -19526.889     -13011.254      4.054421      -56256.39     
    306000   956.88085     -16116.139     -20752.302     -11783.447      4.0139355     -56308.513    
    306100   902.59797      983.44222     -4367.2829     -14038.372      4.0423322     -56264.986    
    306200   917.95077      34054.457      35428.976      14251.748      4.1309266     -56232.252    
    306300   947.52588      16090.265      27038.949      7462.3809      4.0977657     -56210.984    
    306400   988.18201      5836.873      -7632.9346     -2924.3384      4.0765893     -56216.734    
    306500   958.69741     -14365.095     -2841.177      -14683.798      4.0605982     -56198.469    
    306600   980.25832     -5359.5033     -11028.457     -11831.548      4.0607655     -56223.215    
    306700   946.93763     -5094.9734     -5073.9396      6169.5904      4.0724215     -56218.565    
    306800   967.41365      12446.053      7962.1674      14542.383      4.0800256     -56249.176    
    306900   865.41674      43059.168      24433.874      6524.5894      4.1356553     -56219.961    
    307000   908.99062     -2815.1836     -4578.0852      6841.9598      4.0912372     -56262.89     
    307100   899.05254      2378.5271      3674.4406      11985.049      4.0812636     -56262.309    
    307200   919.69119      7088.0535     -10003.436      19460.882      4.0624566     -56272.783    
    307300   867.71916     -1908.7395      10829.564      4257.6924      4.0585847     -56239.844    
    307400   863.95734      7695.849       14576.864      6339.5412      4.1080566     -56229.131    
    307500   940.57452     -6650.5521      1458.2124     -18899.109      4.0879807     -56265.702    
    307600   909.34923     -19572.334     -24970.094     -17147.84       4.0327223     -56237.939    
    307700   902.2085      -11672.538     -25042.704     -29667.264      4.0282479     -56219.813    
    307800   992.55009     -6258.153      -11468.058     -14105.409      4.0464261     -56257.197    
    307900   954.63558     -4149.0489      12579.254      10458.841      4.086349      -56232.4      
    308000   974.0757       33311.605      23504.955      33602.62       4.1007702     -56239.925    
    308100   992.86009      24677.448      27862.544      11477.9        4.1062685     -56254.643    
    308200   956.39176     -1638.1066      2985.7924     -8598.3263      4.0929693     -56255.536    
    308300   852.99332      8405.9413     -2617.7848      8407.7333      4.1007451     -56229.164    
    308400   942.71486      21693.499      4069.7378     -8066.8075      4.0631093     -56302.843    
    308500   805.45324      23123.256      21585.761      15348.433      4.1047403     -56232.51     
    308600   956.14347      17983.207      12255.212      21851.008      4.0907118     -56313.347    
    308700   912.98485      393.68961      21605.058      12853.625      4.0785925     -56271.406    
    308800   894.58284      30831.911      330.69217      8662.3332      4.0730606     -56224.495    
    308900   978.28761      18667.929      3842.6783      8233.6793      4.0907957     -56231.875    
    309000   925.42392     -2040.8154     -4767.4487      5238.007       4.0389748     -56183.524    
    309100   942.55763      3807.7841     -10279.373     -9506.6457      4.057994      -56193.968    
    309200   937.49777     -29813.938     -21724.472     -25913.011      3.9921809     -56207.763    
    309300   877.76971     -35712.798     -30129.803     -20418.191      4.0155933     -56196.84     
    309400   963.76913     -8307.9121     -19301.719     -25137.513      4.0643109     -56258.033    
    309500   973.46502      207.9948      -21574.726     -2707.5452      4.0292608     -56279.205    
    309600   897.60339     -10613.752      19111.397     -6182.5429      4.0927267     -56255.399    
    309700   922.74672      20022.311      7764.4645      9722.0507      4.1123353     -56281.228    
    309800   941.82605      27359.777      16808.791      8662.641       4.125994      -56297.74     
    309900   795.99888      9169.0095      11532.823     -8914.4936      4.0650689     -56215.704    
    310000   906.9478       6710.634       9515.5211      8344.3693      4.0976897     -56263.512    
    310100   946.44899      8450.0818     -2091.7549      7063.2519      4.0578671     -56268.056    
    310200   934.19206      21237.415      4661.2084      480.72571      4.0734039     -56230.648    
    310300   1092.1367      2373.6472      7217.4954      2924.6496      4.0900817     -56250.968    
    310400   1013.2818     -10130.407      7040.1423     -3228.2577      4.0747645     -56186.549    
    310500   967.66106     -3689.8576     -2330.0332     -16231.072      4.0471524     -56173.699    
    310600   969.00311      699.09795     -3270.4882     -11886.551      4.032787      -56208.266    
    310700   970.58777      1022.3725     -5406.8561      4345.7465      4.0680907     -56251.119    
    310800   894.48409      17729.139      8262.1223      9912.2666      4.0775617     -56237.419    
    310900   865.76462      6683.1752      10767.863     -1220.3842      4.0737688     -56237.659    
    311000   884.04789      5513.4354     -3076.4213     -15854.309      4.0389713     -56258.006    
    311100   900.41864     -1194.5518     -30046.928      524.36877      4.0515653     -56274.841    
    311200   932.34578      13642.481     -5879.5516     -2490.692       4.0691113     -56301.017    
    311300   868.37362      1675.1636     -2358.0486      18523.164      4.084413      -56268.714    
    311400   930.40512      6875.1457      18841.663     -1351.8996      4.1043127     -56293.075    
    311500   892.50436      9339.1038      11617.54      -1722.9294      4.0534478     -56251.703    
    311600   903.90231      12949.803      23956.899      24272.891      4.1441987     -56228.594    
    311700   984.0494       24988.54       6969.2605     -4749.6972      4.0931915     -56246.177    
    311800   1017.8382      1682.3624     -655.41016     -9945.9232      4.0809564     -56249.53     
    311900   950.28191     -12889.136     -15174.831     -18119.247      4.0550705     -56216.774    
    312000   841.23095     -21924.732     -5219.1604     -11902.915      4.0343473     -56184.241    
    312100   919.14755     -15390.591     -8460.8928     -8861.4854      4.0692823     -56271.305    
    312200   920.93893     -19969.985     -24827.121     -19999.527      4.0366162     -56304.531    
    312300   863.46407     -17104.895      11334.098     -12770.726      4.0849031     -56282.844    
    312400   792.73552     -15387.53      -2914.8799      4422.1398      4.0761143     -56243.826    
    312500   880.58204     -4839.8266      3422.4882      6318.1976      4.0780242     -56279.983    
    312600   859.25361     -3441.9893     -11559.954     -20184.665      4.0203505     -56250.143    
    312700   922.34927     -7572.9442     -12422.659      4994.3958      4.0650985     -56263.594    
    312800   987.85873     -4410.2055     -7503.2598      9598.222       4.0920692     -56282.018    
    312900   915.10136     -2494.1354     -3132.4738     -10295.483      4.0460475     -56226.577    
    313000   912.55781      14126.526     -577.13066      8051.0585      4.0969319     -56213.107    
    313100   853.56114      22639.28       10757.78       1816.9195      4.1078536     -56186.549    
    313200   925.49163      9398.6506     -5957.1617      912.92621      4.0576078     -56254.679    
    313300   938.4097      -11150.037     -2891.9485     -9061.8608      4.0434379     -56295.762    
    313400   818.6486      -16061.618      3840.2263     -20341.955      4.0504248     -56259.092    
    313500   848.40379     -10620.912      130.22853     -3444.761       4.0646642     -56292.871    
    313600   856.38737      14677.854     -519.59457      23509.93       4.0599131     -56299.492    
    313700   785.48454      3754.6026      5433.5897     -2954.5983      4.0579091     -56256.975    
    313800   880.95827     -17882.43      -4571.5931      690.065        4.0655424     -56297.531    
    313900   894.13049     -20929.541     -15672.026     -30771.545      4.031267      -56272.199    
    314000   937.96662     -29548.584     -23927.367     -3011.8211      4.0184398     -56257.209    
    314100   873.62463     -27315.973     -15231.271     -11401.801      4.0417098     -56205.57     
    314200   859.19292     -33766.871     -1411.4239     -22474.95       4.00651       -56198.088    
    314300   863.30733     -10882.262     -18547.589      8195.5424      4.0083822     -56209.807    
    314400   951.47761     -905.66289     -15914.191     -11996.137      4.0492084     -56276.331    
    314500   866.10366     -14265.638     -15722.217     -5021.6008      4.0230366     -56246.826    
    314600   954.18089     -14107.775     -13313.021     -18007.578      4.0563242     -56306.212    
    314700   892.19034     -18859.413     -6087.1605     -22856.702      4.0240568     -56281.284    
    314800   854.49953     -4249.5807     -11877.159     -8937.7789      4.0475235     -56266.754    
    314900   920.7768       563.75321      21761.561     -4558.2144      4.1025011     -56308.921    
    315000   903.80535      22367.287     -2314.3361      2079.9783      4.0981145     -56307.375    
    315100   856.7257       2537.965       22458.223      7727.5017      4.1142673     -56293.41     
    315200   817.68522     -2067.1368     -9757.5652      12950.163      4.1005087     -56292.397    
    315300   778.77666     -7974.0238     -16516.69      -5649.3049      4.024388      -56296.934    
    315400   783.78974      5160.7425      1981.1274      4873.464       4.0897052     -56316.734    
    315500   830.3785      -4605.7598      2822.9511     -8675.8624      4.0336402     -56337.919    
    315600   822.72863     -11272.86       3021.9702      2324.0789      4.077067      -56309.342    
    315700   867.18333     -4410.1543     -461.32263     -3180.4144      4.0519911     -56292.452    
    315800   844.752        1144.5059      6814.1906     -7270.7884      4.0786908     -56256.757    
    315900   852.70394      4570.9215      11149.898     -7761.7627      4.0460448     -56250.939    
    316000   830.96209      11637.65       25976.565      11881.908      4.0973961     -56231.265    
    316100   876.1669       5238.2417      5358.9329      19086.432      4.1122671     -56258.679    
    316200   847.24488      307.24151     -293.12074      9734.6119      4.1096404     -56253.614    
    316300   902.22034      15195.295      10836.735      16159.511      4.1102958     -56295.176    
    316400   808.51008      28526.89       17449.727      1359.5405      4.0646813     -56272.61     
    316500   876.84108      23146.001      5425.6986      11515.11       4.0710437     -56336.076    
    316600   836.10956      12378.724      29198.341      11653.465      4.1354744     -56326.981    
    316700   875.11497      19315.634     -1775.816       26032.759      4.0971479     -56351.923    
    316800   795.94147      9976.6277      12059.26       27449.483      4.0740575     -56302.735    
    316900   894.60563     -1616.2843     -4445.3652      8799.0824      4.0861639     -56316.437    
    317000   852.34415     -19313.091      269.29766     -13427.192      4.0420971     -56250.44     
    317100   885.51894     -15120.534     -7259.5622     -27173.056      4.0246117     -56248.506    
    317200   905.35538     -28026.214     -9747.6733     -13181.466      4.0409422     -56258.484    
    317300   873.47152     -8026.1012     -21361.29      -2846.5477      4.0394613     -56250.269    
    317400   849.87325      3613.6141     -7790.4786      11627.182      4.0468243     -56260.54     
    317500   878.39646      5274.7052      11468.661      13031.512      4.0850043     -56303.352    
    317600   818.54545      5921.1668     -20490.003     -14799.088      4.0318848     -56292.827    
    317700   842.60404     -20288.785     -2798.865      -13167.5        4.0728981     -56315.104    
    317800   795.49317     -18073.565     -4625.9336     -5354.475       4.0137059     -56288.288    
    317900   881.64094      4590.2038      8867.167       9137.2141      4.0882082     -56328.606    
    318000   873.76101     -2765.3873      14419.219      9902.4206      4.1150846     -56315.794    
    318100   790.38179      2923.8366     -4369.0569     -4770.4138      4.0536219     -56257.583    
    318200   882.32653      1940.8106      4958.7118      2445.2526      4.0857478     -56288.168    
    318300   847.24073      10245.846     -9946.6975      479.27566      4.0639004     -56231.759    
    318400   1002.5592     -12108.08      -14352.778     -10978.246      4.0667063     -56250.813    
    318500   972.35436     -9582.844      -12880.697     -21270.701      3.9959162     -56213.215    
    318600   956.70552     -12560.916     -8998.358      -5170.3182      4.0191987     -56223.736    
    318700   950.06204     -2522.1936      7454.9717      3979.5947      4.0749226     -56258.298    
    318800   911.9654       33820.749      33303.044      21628.095      4.114474      -56276.227    
    318900   859.94117      32119.854      17784.962      25551.019      4.1043257     -56278.8      
    319000   840.90842      5384.4847      23170.961      8811.1156      4.1094249     -56286.542    
    319100   768.28094      12187.064      29847.462      5434.3846      4.1184927     -56262.196    
    319200   832.52205      8598.0231      3904.7732      13063.834      4.0978836     -56312.349    
    319300   791.04794      109.2485       8045.3131     -2141.4205      4.0962432     -56302.304    
    319400   801.45591     -4047.5548     -12770.55      -20951.766      4.0562191     -56311.23     
    319500   857.4344      -2768.2507     -6681.8631     -7714.0905      4.0831187     -56334.199    
    319600   860.03618      17410.604      3650.459       646.11765      4.1051235     -56304.48     
    319700   855.63572      2101.9657      8671.144      -3285.1816      4.0963675     -56269.062    
    319800   891.60758      7647.8438     -1973.7522      887.08002      4.0475447     -56265.872    
    319900   878.02796      5326.0685      15461.5       -9364.7278      4.0511091     -56252.456    
    320000   966.55542      8856.2287      13052.126      23256.49       4.1072347     -56307.169    
    320100   846.14271      10396.331      22862.8        15324.156      4.1149263     -56264.445    
    320200   814.5571      -9452.3302      18029.533     -5146.9741      4.0924863     -56271.868    
    320300   856.74794      972.52373     -6161.5626     -12688.952      4.0546961     -56309.768    
    320400   828.43812      6885.7443      3729.346       3111.8475      4.0740915     -56298.373    
    320500   825.48087      16990.629      4389.4987      15952.472      4.1075732     -56297.638    
    320600   834.95574      12071.203      17432.022      12881.841      4.1206934     -56301.861    
    320700   866.6235      -1036.0276     -8057.8992      5991.4479      4.0786251     -56318.396    
    320800   820.96371     -6756.9393     -2327.789      -8575.0281      4.0501608     -56293.678    
    320900   776.20199     -1372.8522      9708.1803     -15675.626      4.0700363     -56270.873    
    321000   888.1132      -5611.6878      7139.4748      13374.191      4.1134608     -56331.523    
    321100   830.70611      8269.1293     -3218.0121      1141.7117      4.0776565     -56297.001    
    321200   851.44882      1740.3457      7240.9104     -3921.7182      4.0826128     -56303.078    
    321300   862.0699      -1395.8189      3054.0528      181.09248      4.0671387     -56305.645    
    321400   816.94308     -16403.456      4676.6915      428.56644      4.0683936     -56276.363    
    321500   807.10893      6221.959       4710.2161     -12950.734      4.0898482     -56269.529    
    321600   822.42594      10147.39       8304.4328      20873.237      4.1119441     -56286.668    
    321700   820.32938      9647.9027      21493.72       1505.4602      4.085395      -56303.178    
    321800   811.64171      16854.365      27629.64       12477.837      4.1362814     -56319.081    
    321900   700.17874      23583.95       3685.5001      19077.837      4.1154557     -56280.739    
    322000   793.86328      1171.5111     -9005.6489      7019.5639      4.097668      -56346.607    
    322100   787.27641     -4468.5706     -6246.489      -4107.0552      4.08246       -56347.134    
    322200   743.77293     -52.562933     -8255.0413     -2435.1905      4.0859124     -56306.947    
    322300   862.09754     -1280.5006      6616.8322     -15736.387      4.0810271     -56328.995    
    322400   809.3166      -11249.516      13853.28      -2334.7609      4.0697844     -56264.543    
    322500   844.04485     -20932.863     -6823.291       700.83356      4.0438511     -56273.238    
    322600   857.235       -32373.75      -17744.022     -20036.124      4.0121443     -56280.974    
    322700   794.0066      -28360.085     -4013.5994     -32126.709      4.0450147     -56260.481    
    322800   817.93932     -4498.8068     -16066.319     -8627.6347      4.0692306     -56293.301    
    322900   875.29882     -9330.8559     -10280.516     -19114.387      4.0457969     -56344.684    
    323000   766.73388     -9615.8043     -2915.5899     -19772.652      4.068405      -56308.927    
    323100   757.95933     -1920.3518     -11987.683      5337.673       4.0811857     -56318.467    
    323200   774.13482     -4338.5735      3391.7049      9960.8321      4.087589      -56325.524    
    323300   748.00776      1593.9741      299.88826      192.85376      4.0838977     -56309.981    
    323400   795.67498      3372.6006      7512.2589      6108.9298      4.0906677     -56327.283    
    323500   767.77858      2852.3927     -13697.651     -2549.2317      4.0831011     -56306.121    
    323600   880.67106      3001.1903      4340.8185     -9023.1449      4.1017518     -56361.204    
    323700   787.32035      6437.277       4370.3648      18674.131      4.0937612     -56303.152    
    323800   816.336        9966.5968      6503.5536     -6613.846       4.0563036     -56312.103    
    323900   787.68076      4304.0301     -1188.1524     -8408.1608      4.0541569     -56289.353    
    324000   842.02066     -5028.5635     -5018.4269      11631.2        4.0772559     -56302.147    
    324100   918.82088      5994.8162      8073.2302      7305.2461      4.0760384     -56315.742    
    324200   870.24377      26535.385     -3912.616       1899.4672      4.0930447     -56259.056    
    324300   905.78757     -8356.7553     -16799.003     -9897.4041      4.0655043     -56266.352    
    324400   909.87088     -33805.643     -6370.1045     -29047.422      4.0353997     -56283.206    
    324500   828.44259     -16365.902     -17368.511     -12090.633      4.0336615     -56289.038    
    324600   862.16701     -1598.3147     -1511.4523     -8593.3863      4.0608075     -56341.309    
    324700   717.42964      2853.1704      20128.733      943.42608      4.0980431     -56272.667    
    324800   792.18132      4967.7578     -9631.7945     -22666.59       4.061078      -56315.646    
    324900   777.16133     -16271.763     -16426.33      -24750.686      4.0506826     -56310.451    
    325000   815.95243     -20718.087     -9357.2749     -15519.653      4.0694822     -56330.686    
    325100   817.7889      -6370.5817     -5350.5637     -15815.18       4.0784706     -56324.789    
    325200   843.94636     -22027.2       -1098.2243     -16065.917      4.069501      -56329.398    
    325300   807.57031     -8888.4793     -16921.301     -7426.4609      4.0469231     -56299.941    
    325400   865.37434     -17343.978     -19743.043     -8707.4587      4.045733      -56325.391    
    325500   813.81558     -3699.1106     -7036.8414      3846.3889      4.0918719     -56302.471    
    325600   821.38867      2565.6948     -4778.5785      8932.9006      4.0757778     -56314.091    
    325700   833.3942       14148.456     -1895.14       -3336.7729      4.1013085     -56330.629    
    325800   763.5461       14796.591      5527.5862     -16731.613      4.0855896     -56314.596    
    325900   709.26179      9678.999      -1256.6703      15247.401      4.0967415     -56312.224    
    326000   722.71824      3458.5604      1735.2973      8661.3683      4.097663      -56334.359    
    326100   765.33598     -2482.2348      7757.4593     -1694.6158      4.086715      -56358.544    
    326200   744.5344       8869.5405      5178.46       -10226.453      4.0790319     -56335.148    
    326300   784.18643      2226.9208      12382.308     -5270.1198      4.0906982     -56332.661    
    326400   839.89694      9790.0497      3913.3515     -8789.108       4.097635      -56331.087    
    326500   793.42104      13073.536     -4040.2473     -10217.096      4.0832383     -56287.234    
    326600   841.29104      8940.2453     -3865.9916      1260.6613      4.111619      -56313.004    
    326700   841.81716      340.36916     -5964.6072     -1222.898       4.0937448     -56322.011    
    326800   818.39102     -8176.7527     -5395.5404     -3144.468       4.0614959     -56319.659    
    326900   840.23139     -11665.159     -2532.4728     -18619.285      4.079153      -56346.386    
    327000   746.33087      9431.3349      1012.6307      3947.3989      4.103914      -56315.483    
    327100   790.62513      7872.1966      14393.077      9579.1169      4.0985099     -56350.035    
    327200   850.08261     -3910.3302      9401.937       19556.426      4.0770025     -56391.411    
    327300   742.27511      726.58854      7334.1794      9177.0112      4.1051281     -56336.88     
    327400   756.4237      -6203.5386     -2872.2211     -2749.0559      4.0783761     -56341.636    
    327500   749.36487     -8729.7401     -3047.6496     -651.46591      4.0986491     -56322.036    
    327600   800.08999     -6682.5323     -12311.524     -13248.197      4.0697851     -56320.222    
    327700   842.19498     -17569.675     -19092.598     -7770.6447      4.0283385     -56316.756    
    327800   812.32525      3725.4863     -7782.0294      13329.231      4.0710271     -56287.493    
    327900   876.35545      19302.787     -10613.651     -7718.9325      4.1040178     -56321.744    
    328000   761.18646      5177.3         1128.004       2390.8351      4.1082424     -56274.249    
    328100   765.86812      529.12372     -7124.9145     -6884.7229      4.0640014     -56302.368    
    328200   812.00417     -10656.067     -16972.114     -14538.417      4.0456089     -56356.84     
    328300   760.64637     -22595.874     -14816.644     -15813.314      4.0599902     -56348.804    
    328400   809.1136      -22272.764     -20325.812     -19235.203      4.0413925     -56381.702    
    328500   747.71125     -9344.6075      4661.0877     -2332.4852      4.0805913     -56342.517    
    328600   777.33687      26937.394      5213.0783      8388.9119      4.1066839     -56349.145    
    328700   737.61654      23303.6        16703.972      13947.974      4.1085879     -56315.443    
    328800   791.66089      14238.828      19399.748      10129.43       4.1476241     -56331.317    
    328900   807.81297      25426.66       23047.202      11746.586      4.1247655     -56329.03     
    329000   786.92747      5972.4328      25624.736      23239.647      4.1096716     -56312.417    
    329100   843.96013      2729.4774      3080.1647     -1303.0284      4.093389      -56334.875    
    329200   828.61517     -3176.381      -4740.8783     -15251.824      4.0783544     -56309.324    
    329300   777.03087     -6914.2533     -21351.625      12240.646      4.0883078     -56270.751    
    329400   854.16965      4086.7453     -137.97126      3250.9953      4.0675768     -56322.291    
    329500   803.03917      6801.5464      11598.903      2169.7394      4.0907824     -56318.821    
    329600   765.66569     -221.3499      -6295.6828     -932.79703      4.0677006     -56332.199    
    329700   763.77562      4104.5333     -2860.6992      5684.6042      4.1054764     -56348.929    
    329800   757.64196     -440.37088      5093.9691     -316.04548      4.1040769     -56357.042    
    329900   750.76704     -2900.0668     -2979.0779     -2002.7574      4.0591976     -56359.849    
    330000   677.57861      4.3670597      2241.1789      13793.222      4.0940414     -56317.831    
    330100   824.99879      16137.291      17071.677      1508.2438      4.1270524     -56383.327    
    330200   789.57954      34351.833      5975.6569     -1350.1459      4.1410937     -56334.551    
    330300   806.16484     -244.19694      12573.845     -6424.1709      4.1138071     -56310.44     
    330400   809.58078     -6571.7496     -15008.595      1072.7825      4.085028      -56296.045    
    330500   842.40039     -6821.7499     -15469.676     -3816.5377      4.0589088     -56318.344    
    330600   808.39021     -16427.013      2451.8104      12662.69       4.0847131     -56313.596    
    330700   772.64355     -3141.4102     -20081.29      -13471.092      4.0383211     -56311.272    
    330800   804.35765     -12774.398     -11089.034     -928.06551      4.0841705     -56343.94     
    330900   757.91895     -8702.2792     -27327.214      1097.2082      4.0689026     -56329.191    
    331000   722.37678     -18572.23      -5048.2461     -9660.792       4.072383      -56315.858    
    331100   771.68374     -15687.015     -10986.747      11368.509      4.0767378     -56343.463    
    331200   738.25406      13542.893      16668.552     -2589.5047      4.1078306     -56325.793    
    331300   752.69027      14431.389      578.33637      13486.37       4.1170954     -56335.412    
    331400   852.17423      29044.051      11145.628     -5047.462       4.1104741     -56398.883    
    331500   793.49905      15187.724      24849.936      11354.871      4.1288091     -56383.001    
    331600   730.82339      199.8749      -1453.1152      14334.808      4.1102981     -56365.896    
    331700   661.74844     -9691.1303     -21892.503     -22662.55       4.03792       -56339.892    
    331800   695.18173     -12972.341     -2637.7161     -18716.95       4.0741698     -56360.24     
    331900   712.99277      143.97509     -6952.9859      4452.7306      4.0930951     -56359.378    
    332000   721.52835      5596.3188      2331.365      -16510.017      4.0944095     -56336.975    
    332100   800.74013     -8368.2115      5705.2275     -6750.6251      4.0989057     -56348.931    
    332200   760.81561      537.0776       5269.4641      4772.7965      4.0699161     -56312.048    
    332300   777.85932      3311.5493     -4084.5413     -14576.4        4.073489      -56321.779    
    332400   761.34875     -10193.258     -15342.301     -19767.811      4.0497355     -56316.79     
    332500   818.35837     -10691.608     -8566.5442     -759.99024      4.089019      -56364.694    
    332600   757.37695     -11352.81       522.03127     -23249.338      4.0459261     -56352.368    
    332700   729.42818     -5049.9286     -32329.692     -25444.51       4.0461673     -56352.522    
    332800   728.96792      4356.0784     -24758.736     -16741.833      4.061905      -56359.118    
    332900   745.90173     -6872.6675      6293.921      -5484.8253      4.0841064     -56368.744    
    333000   732.45907      4249.4531     -11674.194      15187.341      4.1083168     -56357.972    
    333100   743.68658      12699.918      20100.032     -2748.7255      4.112347      -56362.17     
    333200   756.02362      12074.424      30401.152      18071.294      4.1292053     -56361.792    
    333300   809.24424      39925.563      17587.673      38664.304      4.1573748     -56380.339    
    333400   759.07562      30469.085      29534.02       19443.804      4.1367293     -56343.887    
    333500   771.19988     -1476.4598      3207.2341      1399.9515      4.0907567     -56342.42     
    333600   777.90376     -2555.0197     -5055.2257     -13598.069      4.0794482     -56333.841    
    333700   784.60036     -7182.3253     -29209.189     -8436.9904      4.0766483     -56323.292    
    333800   763.65356      3579.8114     -2505.0944      9176.4898      4.0968785     -56300.505    
    333900   768.75325      16812.917      19649.114      11619.549      4.0948409     -56302.382    
    334000   770.85057      18572.795      19307.265      5091.3513      4.1142431     -56324.497    
    334100   728.85967     -96.72488      -5048.6169     -1980.0849      4.0890091     -56336.592    
    334200   775.55451     -1548.1053     -14522.097     -7478.0345      4.0670024     -56382.464    
    334300   752.10806      3057.503      -1987.2706     -704.52731      4.103501      -56384.306    
    334400   731.39785      13349.171      15234.663      7479.0015      4.1434258     -56379.215    
    334500   703.96427      4819.2917      6086.9753     -11121.273      4.1010909     -56365.152    
    334600   694.87885     -7494.2039     -11927.212     -6867.2121      4.0685683     -56353.334    
    334700   670.09693      1541.8111     -9577.2145     -11727.406      4.065181      -56319.417    
    334800   737.14748     -9058.47       -17633.526     -10867.742      4.0802947     -56323.272    
    334900   802.70392      12171.377     -2248.7111     -8946.3867      4.1097915     -56332.433    
    335000   725.03462      4402.3401     -2679.0493      19127.914      4.0840343     -56281.589    
    335100   788.39877      1101.296       1177.6185      3960.2481      4.0774652     -56326.128    
    335200   748.07585      12560.964      11713.288     -14682.788      4.0925267     -56322.228    
    335300   767.30109      2298.9734     -4315.8789     -10475.432      4.1085683     -56348.398    
    335400   728.07207     -22619.229     -9903.3353     -6901.829       4.0576612     -56339.42     
    335500   734.22574     -11594.747     -10269.896     -23625.147      4.0576933     -56354.163    
    335600   710.52363     -13759.431     -7301.4781     -25098.743      4.0870419     -56349.084    
    335700   708.41917     -9205.5192     -24156.333     -29602.018      4.0638227     -56356.304    
    335800   744.08894     -26495.987     -25700.51      -32897.704      4.0327668     -56384.022    
    335900   693.85987     -11034.814     -25884.599     -3536.5638      4.0466687     -56365.463    
    336000   698.29043     -3419.2312     -4700.3609      14487.473      4.0680005     -56371.699    
    336100   712.71887     -7504.4099      7693.9677      5931.7545      4.092924      -56387.451    
    336200   666.62253     -9686.2702      7866.0969      2533.1214      4.0783192     -56371.635    
    336300   680.99373     -7602.7745      6197.4895      21091.029      4.1078694     -56377.003    
    336400   675.93153     -5876.7222      243.22725      596.93922      4.0845822     -56361.27     
    336500   701.32824     -8130.8048     -5875.204       14635.183      4.0594087     -56351.859    
    336600   792.08608      15069.029      2922.8835      7899.623       4.0788794     -56377.714    
    336700   777.34542      10594.848      12146.306     -3729.0902      4.08823       -56356.723    
    336800   772.02208     -1086.9846      15433.356      12671.804      4.1012068     -56355.296    
    336900   750.82713      10411.415     -7365.1231      14791.616      4.1017658     -56353.792    
    337000   833.34414     -16237.599      5240.1657      3914.329       4.0727216     -56414.098    
    337100   693.52886      1175.4161     -3185.911       2582.4156      4.0743053     -56363.683    
    337200   675.56714     -19315.547     -14913.36       2793.4179      4.0663018     -56384.498    
    337300   659.50031     -5525.7621     -7564.476      -3782.8719      4.0839712     -56390.547    
    337400   678.60932     -3528.1176      5006.0377      7238.9656      4.0995935     -56400.861    
    337500   703.89193      14105.412     -1301.621      -11923.161      4.0979415     -56407.876    
    337600   666.12418      8312.8925      5916.0363     -20501.174      4.0940893     -56373.597    
    337700   730.5141      -6822.595       3124.6095     -1793.0251      4.1273443     -56393.23     
    337800   689.39244      1358.857       1438.5612      5909.8685      4.0876612     -56354.907    
    337900   733.2981       13891.542      9530.2986      11503.822      4.0879087     -56364.447    
    338000   767.19304      3246.6282     -1625.8637      10249.418      4.1121547     -56376.184    
    338100   736.82139     -18833.236      4782.6022     -22422.384      4.0503527     -56356.69     
    338200   702.94797     -14247.061     -4063.2861     -877.77261      4.0824844     -56334.021    
    338300   788.98972     -15461.519      4397.4458      12919.09       4.1119978     -56390.463    
    338400   681.73918      4514.1314      1327.2653      10781.068      4.0823229     -56360.507    
    338500   705.18468      7170.5823      21062.935      11714.268      4.1089355     -56399.05     
    338600   644.20054     -4361.6099      6963.7819      6589.3714      4.1102625     -56382.382    
    338700   720.01305      1036.2758     -14433.796     -3853.5083      4.090415      -56427.07     
    338800   726.57929     -4411.7856     -6493.6156     -6183.5945      4.089989      -56425.796    
    338900   677.67633     -966.73138      5339.5444     -21459.159      4.1061088     -56383        
    339000   750.23258     -5866.2866     -4921.0091     -12589.394      4.0896633     -56393.165    
    339100   759.92322     -5732.1624     -6395.376      -1245.7593      4.0755528     -56377.006    
    339200   739.02378     -4632.0315      989.00778      3083.602       4.0933716     -56358.379    
    339300   678.74576      4310.0527      10220.995      7108.2382      4.0999797     -56329.104    
    339400   747.25246      8213.1977      6084.0638      18445.779      4.0948202     -56371.781    
    339500   702.97196      13748.603      16855.549      16535.442      4.1138379     -56356.052    
    339600   711.45301      16766.067      14721.795      17305.441      4.1347553     -56374.546    
    339700   680.50009      9925.7763      6376.8718      11544.737      4.0984094     -56370.883    
    339800   702.82389      10051.815     -3397.8007      5198.0592      4.0903719     -56389.693    
    339900   677.09423      1342.71        6007.6222      5050.0044      4.1163503     -56383.461    
    340000   733.1996       2810.2384      4822.1583     -5427.6598      4.1219269     -56416.677    
    340100   680.42879      7534.9659      16636.851      4398.7875      4.0921922     -56385.264    
    340200   718.07946      17608.562      22542.106      9554.2449      4.1300444     -56402.871    
    340300   720.0571      -12703.64       5298.3389      4507.9767      4.0849653     -56400.287    
    340400   722.65727      10509.945      7275.5376     -3156.7333      4.1075477     -56402.076    
    340500   719.9534       875.30351     -1729.5559      3076.9996      4.10655       -56397.292    
    340600   672.12177     -18708.197     -12624.989      9775.4149      4.0984932     -56369.918    
    340700   693.95265     -8881.9465     -32362.889     -22101.68       4.0661977     -56381.927    
    340800   745.25963     -16365.012     -11009.905     -6797.6731      4.0896627     -56408.126    
    340900   693.46625      14935.806      7041.0108      2019.0072      4.1238219     -56378.362    
    341000   708.53358      9573.6734      23646.06       12134.528      4.1061611     -56385.762    
    341100   736.2812       10715.714     -10734.995      11094.911      4.0930717     -56393.64     
    341200   751.26431     -2663.1209     -13901.092      2421.8503      4.0735628     -56399.465    
    341300   728.7049      -4039.1682     -24567.508     -16030.73       4.0607507     -56385.805    
    341400   723.92387     -9151.4812     -1940.0307     -15723.526      4.0756352     -56383.504    
    341500   652.80138      8739.3704      8147.7899      10133.724      4.1117017     -56346.882    
    341600   689.5977       12900.93       16275.049     -409.00094      4.0956602     -56375.866    
    341700   712.35817     -15327.296     -4169.3209      19312.926      4.0962096     -56407.558    
    341800   630.30171     -3972.7274     -3312.4585     -1115.3529      4.0639888     -56382.064    
    341900   727.53771     -8281.4781     -887.41566      2217.4671      4.0975603     -56448.525    
    342000   660.79712     -4029.0463      996.6182       21600.092      4.1186746     -56416.196    
    342100   641.56114      9064.2003      19271.848      12279.76       4.1064108     -56400.612    
    342200   691.23684     -6981.4997      196.5068       16442.801      4.0969452     -56406.386    
    342300   750.16634     -9401.2068      12905.97      -12038.288      4.0932195     -56399.13     
    342400   677.89367      12831.762      6874.3464      9672.3996      4.1172528     -56342.395    
    342500   747.32322      629.99248      6386.3433     -2129.9606      4.0883637     -56382.599    
    342600   756.35237      15409.81       10182.001      13978.708      4.1486425     -56394.299    
    342700   690.43336      61.211024      3287.6366      8622.7731      4.0975807     -56377.699    
    342800   748.3036       11298.673      9607.865       9348.7086      4.1149012     -56425.164    
    342900   663.42523     -2237.1415      538.06944      6948.3065      4.1074685     -56389.702    
    343000   686.71033     -4779.9797     -20881.876     -3204.3686      4.0636741     -56408.055    
    343100   686.7403      -2263.5877     -13931.008     -7557.419       4.0880293     -56407.204    
    343200   662.2134      -6250.2581     -8599.39       -7524.7412      4.0789399     -56392.626    
    343300   670.06276     -9511.6279     -6748.4952      7022.3287      4.0787898     -56398.453    
    343400   689.65265     -851.45041     -5429.5044     -13411.643      4.0693843     -56405.235    
    343500   712.97274      1436.3563     -14460.275     -1507.6913      4.0972587     -56412.856    
    343600   708.78546      1916.753       10519.894      949.38898      4.0885474     -56407.214    
    343700   675.07315      15453.271      8230.8507      32664.637      4.1177433     -56387.203    
    343800   678.51812     -376.09318      17819.595      16686.529      4.091696      -56388.198    
    343900   683.30184      1557.0769     -11524.674     -8833.4121      4.0776219     -56389.123    
    344000   659.29378     -9919.7916     -21163.884      13055.126      4.0765008     -56378.127    
    344100   692.1721      -12784.401     -2378.6959     -11609.323      4.075529      -56400.017    
    344200   709.92361     -20477.71      -15055.605     -5861.7294      4.07177       -56416.005    
    344300   724.37744     -1436.5059     -13333.72      -112.09869      4.0974081     -56428.22     
    344400   654.00855      2794.005      -9841.314       3757.971       4.073631      -56393.913    
    344500   658.02787     -1129.5376      1432.1873      4330.4422      4.0807767     -56402.617    
    344600   659.57736      30.426646     -829.45813     -2680.7695      4.0962525     -56418.726    
    344700   653.92863      5741.8398      12283.81      -3949.8884      4.1224377     -56437.862    
    344800   619.72216      15492.708      16980.623      17450.52       4.1312319     -56431.688    
    344900   611.25501      19795.27       14814.851      11936.397      4.1390265     -56425.061    
    345000   670.98392     -1482.5216      10247.803     -7311.2774      4.1143125     -56445.169    
    345100   663.10024     -6893.8145     -4174.1021     -9523.7594      4.0842366     -56412.786    
    345200   708.24976     -9875.1898      5144.76       -6308.9935      4.0955553     -56415.265    
    345300   684.72431      7105.4967      12373.38      -6088.4872      4.1240827     -56389.165    
    345400   669.61366      3112.0673      4240.2761     -421.4486       4.0997956     -56378.032    
    345500   660.94464      22131.474     -2273.2711      9390.0217      4.1042062     -56378.184    
    345600   722.52426      17759.389      19565.39       20057.886      4.1227907     -56421.914    
    345700   652.37403      10691.8        24267.868      4852.1837      4.1129517     -56399.741    
    345800   648.30306      905.28069      11953.261      2269.2031      4.1192051     -56425.29     
    345900   591.15921      14962.765     -14284.526     -12963.25       4.0901882     -56420.436    
    346000   597.4053      -11484.425     -5539.7731     -2489.8026      4.0871189     -56431.383    
    346100   607.73595     -12869.08      -13259.001     -17451.59       4.0760993     -56433.459    
    346200   628.58706     -10283.89      -9997.7395     -23792.906      4.0828133     -56435.946    
    346300   634.86197     -12790.898      8829.5767      5549.3785      4.1152988     -56429.159    
    346400   645.65461      7426.843       23193.518      22669.165      4.1348013     -56422.31     
    346500   663.34349      4485.6443      13538.17       8227.9361      4.1079125     -56418.216    
    346600   653.96706     -5378.7451     -5576.2542     -3509.2949      4.0780394     -56398.693    
    346700   703.75783     -4925.7456     -17366.032     -4035.8768      4.0730267     -56412.191    
    346800   703.51941     -11260.409     -14205.555     -17717.107      4.0504506     -56404.862    
    346900   675.34514     -7524.3237     -6746.0741     -18821.997      4.0818751     -56385.689    
    347000   619.93852     -19747.517     -32926.2       -20313.054      4.0234606     -56361.204    
    347100   690.61103     -22746.959     -25959.37      -22304.389      4.0738929     -56425.255    
    347200   596.97534     -500.40121     -2029.1523     -13030.924      4.1105883     -56408.122    
    347300   601.7191       13593.293      11521.045      5601.4576      4.117759      -56433.009    
    347400   636.23114      12366.585      19452.008      13412.151      4.1264884     -56452.403    
    347500   609.93597      14336.992      16725.563      37112.355      4.1511122     -56429.476    
    347600   610.4267       9369.4299     -5529.7106      19148.745      4.1076491     -56414.363    
    347700   622.63311     -16773.539      7170.1666     -13422.601      4.082446      -56399.597    
    347800   702.86662     -11321.645     -11779.605     -9296.9445      4.0642118     -56430.219    
    347900   665.10133     -18007.129     -12673.231     -16637.107      4.0740355     -56407.08     
    348000   644.8735      -3326.6734      72.584701     -13943.91       4.0678496     -56397.339    
    348100   660.53159     -6743.5474     -3877.2302      7841.9535      4.0940083     -56409.255    
    348200   698.5153       4583.2609      3168.6471      9108.5666      4.0974831     -56436.191    
    348300   637.23705      2310.1064      24973.183      10389.781      4.1023486     -56416.683    
    348400   641.30754      2570.7702     -1033.1214      24012.839      4.1053037     -56427.631    
    348500   576.15454     -2309.3739     -9541.8867      23993.795      4.092789      -56405.858    
    348600   599.23433     -1917.9475     -1424.5918      7141.9972      4.1031127     -56436.713    
    348700   586.91107     -7748.2282     -396.85784     -169.84869      4.0959436     -56442.626    
    348800   610.83289      4826.8914     -570.77497     -5387.7792      4.0925544     -56457.42     
    348900   605.23008     -5612.0246      3333.443       11544.542      4.0968756     -56440.897    
    349000   674.03686      5284.7456      722.85553      12059.587      4.1239292     -56447.296    
    349100   682.64256     -10632.777     -2288.0462      6518.2526      4.0851879     -56432.174    
    349200   647.00775     -9150.8517     -6035.8824     -17779.246      4.1223326     -56404.422    
    349300   670.19901     -14795.04      -11413.027     -27179.556      4.0772616     -56413.979    
    349400   674.35086     -20213.352     -7900.5329     -17666.074      4.0682995     -56421.324    
    349500   656.35032     -19876.746     -18247.493     -17746.737      4.0549898     -56425.286    
    349600   619.39588     -6722.1467      672.20385     -25768.335      4.0823872     -56420.385    
    349700   606.28674      140.40012     -944.81427      13854.482      4.127882      -56432.427    
    349800   622.90838      734.46461      1840.625       11526.785      4.1202331     -56462.265    
    349900   580.80249     -11529.029      12451.705     -7565.3026      4.1251109     -56456.899    
    350000   601.60502     -21535.788      8561.2672     -6855.7321      4.0991707     -56475.628    
    350100   561.02427     -2415.1039      12499.254     -11030.886      4.0953385     -56444.133    
    350200   646.172        3065.1979      2163.8968      2024.6942      4.1137212     -56452.473    
    350300   599.41501      7191.1035      2436.6258      13122.454      4.1145154     -56401.079    
    350400   673.0671       47.147148      10222.598      4031.2889      4.1325465     -56427.377    
    350500   646.07366      2008.3272      951.00934      91.985161      4.0968003     -56405.731    
    350600   670.8164       15572.726     -2294.2284     -2263.7899      4.0757807     -56418.145    
    350700   688.63704     -1288.1097     -7751.0612      3590.1861      4.0965597     -56431.818    
    350800   646.53736     -11757.593     -15678.37      -16364.713      4.082034      -56419.683    
    350900   607.16749     -12762.418     -8862.8321     -13532.107      4.1034955     -56417.499    
    351000   591.64223     -8319.0817     -1343.6072     -17288.71       4.0861014     -56431.786    
    351100   584.76598      2486.5265     -11800.838     -3841.1646      4.0921535     -56442.148    
    351200   595.09618     -10494.646     -14177.471     -4877.3326      4.0536834     -56450.608    
    351300   579.33986      13553.248      4488.9174      9991.5056      4.1060681     -56435.025    
    351400   629.28583      7253.4434      15088.556     -5557.465       4.1342272     -56450.837    
    351500   600.89079      3025.601       7133.8391      14704.876      4.1167777     -56421.62     
    351600   644.28117      40887.696      15206.046      19576.985      4.1556617     -56436.393    
    351700   626.09253      12613.63       1240.7731      9640.4142      4.1027077     -56422.903    
    351800   612.04342     -8958.1976     -14868.18      -16046.624      4.0718786     -56415.938    
    351900   622.9245      -29689.642     -21572.764     -24254.064      4.065678      -56420.315    
    352000   570.32144     -28532.728     -34541.45      -28144.364      4.0472849     -56390.906    
    352100   656.98727     -21384.062     -33572.407     -9266.8634      4.0709307     -56440.693    
    352200   611.27309     -4372.7899      3634.6947     -11598.065      4.0960306     -56421.026    
    352300   627.18786      4093.2109     -386.15202      2296.461       4.1352192     -56441.199    
    352400   619.83706      1498.9446     -6801.551      -726.31249      4.1136505     -56451.359    
    352500   600.1096       7403.0193      879.41592      10311.522      4.1229824     -56456.217    
    352600   605.13424     -178.90637      5437.6693      11986.837      4.1236882     -56471.366    
    352700   551.56481      3386.2521      21764.36      -3944.936       4.1251266     -56449.404    
    352800   587.69603      5322.6891      9653.0593      9191.7521      4.115532      -56465.228    
    352900   570.14585      9798.8484      12295.481      19865.254      4.1191495     -56431.212    
    353000   636.85723      7537.4807     -7894.1429      62.544235      4.1024005     -56436.273    
    353100   632.89062     -9236.0308      278.24584     -6541.4997      4.0983069     -56418.588    
    353200   634.51812     -14166.436     -14740.268     -26309.297      4.0670599     -56417.344    
    353300   596.20048     -1936.7106     -7204.5419     -11196.198      4.1019468     -56402.155    
    353400   661.61846     -1654.5384      9862.2748      7240.9657      4.085727      -56452.702    
    353500   585.97107      21745.759      7509.1407      12532.389      4.1394023     -56425.723    
    353600   607.41098      11076.286      4189.9316      8259.9527      4.1180846     -56451.507    
    353700   547.55919      16487.385     -9621.1348      577.05931      4.1333934     -56430.384    
    353800   554.88467     -5676.4541      2675.1999      12897.135      4.0913076     -56442.312    
    353900   562.50588      18301.383      1653.6474      7285.7846      4.1184603     -56445.584    
    354000   602.75315      19193.942      10823.629      3107.2615      4.1209586     -56451.279    
    354100   647.2054       4215.5335      19951.378      18576.68       4.1253477     -56443.232    
    354200   593.38026      1190.8862      16431.071      8708.6759      4.1045796     -56393.972    
    354300   656.12433     -1992.5318      12464.469      11249.58       4.1024507     -56422.218    
    354400   614.0503       15795.215     -11945.036      9339.5467      4.1008187     -56401.244    
    354500   618.68722     -5910.7987      5103.6912     -3421.9829      4.0945455     -56416.464    
    354600   626.34562     -12281.413     -5868.7926      5265.0715      4.1060768     -56440.745    
    354700   602.49388      960.08601     -7143.5504     -17540.726      4.0788038     -56448.448    
    354800   581.76498     -6374.647       6370.7055      709.5924       4.0986706     -56450.538    
    354900   601.89343     -9826.2007      11428.41       4151.2293      4.1081727     -56467.427    
    355000   574.43442      9259.6565      1241.294       7391.2937      4.1316333     -56450.059    
    355100   592.4441       2360.9711      1329.1533      10661.417      4.1266332     -56452.779    
    355200   595.68122     -9660.8048     -2338.4284     -522.46757      4.1102869     -56443.165    
    355300   608.78417     -8789.7924     -8663.7321     -8821.0743      4.0838758     -56441.81     
    355400   611.10179     -4882.7287     -17834.384     -13120.679      4.0864337     -56441.027    
    355500   629.97797     -19325.725     -19733.671     -19999.971      4.0775176     -56452.922    
    355600   649.38338      7946.0234      13894.729     -3854.6605      4.1226969     -56461.763    
    355700   619.43962      1045.2019      17119.022      18698.379      4.1233182     -56445.835    
    355800   610.31071     -1211.0421      10941.714      6588.4531      4.1135289     -56445.386    
    355900   560.36601      2232.386       366.33346     -1735.9623      4.1036        -56423.267    
    356000   582.6703      -2584.9869     -13599.543      4869.9754      4.1117146     -56442.331    
    356100   565.9763      -10769.998     -2318.7425     -13456.095      4.1146076     -56440.743    
    356200   548.76649     -4035.525      -6309.9421     -8711.9439      4.0816578     -56440.094    
    356300   555.70692      17663.235      6613.049       1373.8833      4.1226965     -56455.761    
    356400   562.07135     -10218.652     -2899.451      -13546.332      4.095838      -56473.99     
    356500   516.45997     -26183.586     -14628.093     -23619.059      4.0759035     -56457.831    
    356600   553.97777     -26792.56      -15054.442     -12899.596      4.0871894     -56479.096    
    356700   570.82351     -3015.3607     -8760.0489     -14831.888      4.1099934     -56473.925    
    356800   534.93563     -10797.902     -754.0645       8926.546       4.1007715     -56426.273    
    356900   602.88328     -4010.0754      244.65508      10721.406      4.1181202     -56444.962    
    357000   645.34746      8907.7453      6067.927       4424.3705      4.1287693     -56460.245    
    357100   649.68789      14351.446      23941.291     -1373.4234      4.1375653     -56459.95     
    357200   587.30371      11253.379      12411.768      3969.9523      4.1495425     -56431.842    
    357300   563.66991      9450.5394      6232.994       7575.0041      4.13242       -56428.002    
    357400   578.784       -6958.8167     -1895.5047     -2520.2157      4.0912601     -56450.229    
    357500   580.28085     -3887.5989      2069.2385     -6195.1111      4.094854      -56468.98     
    357600   511.55389      433.65994      3180.7552      7921.123       4.107853      -56453.401    
    357700   565.05656      8372.111       342.26728      11512.98       4.1302138     -56495.541    
    357800   538.86156      2784.1995      2299.3546      13875.286      4.110639      -56482.658    
    357900   581.77576      315.25622     -1712.7188     -2898.8731      4.1135516     -56490.879    
    358000   583.98969     -3538.33       -14249.464     -3233.4307      4.1182074     -56449.492    
    358100   574.16864     -12723.344     -11316.648     -4121.2478      4.0855628     -56425.813    
    358200   595.9343       9154.3502      17610.632     -11349.547      4.1166055     -56430.255    
    358300   624.11827      11305.265      11252.279      14798.576      4.1228078     -56446.51     
    358400   637.24024      7403.6427      20939.951      14003.995      4.1498025     -56467.616    
    358500   609.95646      25866.351      19750.205     -1374.7534      4.1372482     -56468.64     
    358600   630.7339       32174.342      4475.0515      21426.627      4.1494296     -56495.284    
    358700   582.09569      11842.492      12365.14       27161.483      4.1526909     -56479.964    
    358800   566.49257      7821.2591      8537.8017      5143.4287      4.1249927     -56477.123    
    358900   587.4045      -681.75575     -8493.3112      2138.3106      4.1307378     -56489.866    
    359000   575.58959     -10049.705      1648.0677      8997.5763      4.1197234     -56478.876    
    359100   574.92307      9217.9748     -386.3646       10410.714      4.1058345     -56455.244    
    359200   627.66637      7955.551       574.88628      9699.231       4.119087      -56451.23     
    359300   617.30932      3182.2395      8974.8325     -2922.0711      4.1032506     -56433.215    
    359400   604.41573     -6234.326       4538.6551     -6928.9618      4.0912448     -56427.272    
    359500   648.18831     -7184.4222     -2779.9445     -1465.3582      4.1156145     -56466.345    
    359600   572.25459     -10081.201      4273.0708     -3453.1223      4.1168073     -56446.62     
    359700   533.39183     -8533.2076     -15422.928     -20636.332      4.0898559     -56438.775    
    359800   541.33832     -14530.996     -3358.2145     -19896.695      4.1053751     -56450.069    
    359900   553.0371      -9633.229      -16779.745     -19948.212      4.0737901     -56460.576    
    360000   536.4204      -10449.479     -5699.7735      4727.4806      4.0982264     -56453.542    
    360100   522.4831      -13130.053     -15614.397     -23603.058      4.0846627     -56441.466    
    360200   562.79877     -19447.447     -22229.061     -27289.776      4.0763566     -56457.566    
    360300   592.36096     -14154.374      1456.0168     -6967.1173      4.1034819     -56464.952    
    360400   565.49324      15383.649      12879.127      109.91376      4.1441603     -56427.652    
    360500   570.31476      14366.693     -1729.293      -12689.683      4.1103562     -56407.159    
    360600   627.91157     -938.85399      10424.344     -1060.6115      4.112609      -56430.355    
    360700   597.52422      2287.1754      24464.649     -3211.6968      4.1181704     -56425.164    
    360800   621.48077     -3302.4417     -2846.0988      1968.0673      4.1259386     -56464.087    
    360900   576.37211     -9033.9181      480.59966     -13255.66       4.1120463     -56461.974    
    361000   508.72523     -12730.758      749.5027      -12267.485      4.0894689     -56438.052    
    361100   525.02669     -19493.467     -8724.8065     -6871.0868      4.0962214     -56453.26     
    361200   532.54172      8128.8406     -4007.5074      142.85583      4.1140849     -56459.666    
    361300   568.29482     -8835.3568     -14672.334     -556.60655      4.1116475     -56482.658    
    361400   547.14097      1877.1774      2640.0436      311.20698      4.1133968     -56469.365    
    361500   588.67723      9521.9339      6757.7188      14328.211      4.1207708     -56488.373    
    361600   564.47909      7496.1741      20639.858      16430.94       4.1157442     -56467.952    
    361700   561.37756      10449.086      5439.0231      4016.6092      4.1145925     -56454.574    
    361800   586.55404     -12119.157      5437.0419     -4117.259       4.0956552     -56449.852    
    361900   569.57426      1800.4714     -534.56791     -2700.9995      4.1223745     -56428.357    
    362000   620.27186     -2489.6725      8711.2174     -9537.0114      4.1108331     -56455.57     
    362100   599.24645     -3366.7115      2421.218       1285.2582      4.1058299     -56461.051    
    362200   556.11261      6835.7859     -15592.93      -5638.9602      4.0821739     -56466.15     
    362300   571.46312     -7065.1666     -17097.539     -16025.12       4.1024182     -56488.907    
    362400   555.11299     -4519.9724      8451.8198     -19470.673      4.1352803     -56485.741    
    362500   489.387        1959.6274      14417.737      147.78432      4.1316195     -56450.862    
    362600   556.52806      18620.676      12610.888      10724.541      4.145426      -56484.63     
    362700   586.73362      14904.035      11776.107      13611.289      4.1308301     -56494.816    
    362800   592.57351      4543.4013      26299.717      8698.5998      4.1442785     -56491.968    
    362900   564.12454      1246.8165      1640.2107      10179.386      4.1077566     -56468.037    
    363000   579.6914      -5675.3612      3162.2204     -7573.3474      4.0910228     -56461.237    
    363100   591.02258     -3061.7794     -4244.1471      145.02545      4.1057388     -56450.566    
    363200   579.89827     -14543.984     -5424.551      -5163.5068      4.1033276     -56440.229    
    363300   575.37146     -4813.0784     -24150.466     -13369.506      4.0863081     -56449.018    
    363400   606.6562      -8868.6706     -3953.2698      7424.0282      4.114205      -56494.465    
    363500   501.88079      18223.441      12052.886      13238.588      4.1455372     -56459.925    
    363600   560.32395      2593.7573     -2972.6265      1072.3638      4.115234      -56499.833    
    363700   529.01575      2824.0561     -17122.134     -2108.0116      4.0963769     -56485.202    
    363800   553.87232     -11771.137     -12252.273     -4586.253       4.1028024     -56496.874    
    363900   536.16367     -6496.2826     -2977.6667     -24276.274      4.1318637     -56486.007    
    364000   546.05531     -2293.2979     -8799.9347     -11819.946      4.098736      -56484.529    
    364100   521.42707      14414.576     -4044.9824      2898.2278      4.1017409     -56457.999    
    364200   596.88433      16555.326      2005.7287      14416.123      4.0981857     -56476.823    
    364300   605.4681       10754.135      17851.915      14385.533      4.1204723     -56466.411    
    364400   539.26289      4888.0011     -11527.406      5449.4994      4.1106257     -56428.091    
    364500   606.90284     -1669.8488      5570.5263      5702.5592      4.1350599     -56477.158    
    364600   525.61836      7744.6215      16053.042      8750.7077      4.1406915     -56463.244    
    364700   506.74704      12464.805      2339.5354      11457.571      4.134081      -56476.065    
    364800   571.23135      177.52375      2497.0521     -152.34735      4.125401      -56515.244    
    364900   530.02472     -425.74679      3870.7162      3740.7476      4.132836      -56493.414    
    365000   549.0017      -6240.8345     -7793.4137     -4054.7364      4.1287437     -56502.876    
    365100   550.64354      5514.8159     -4509.5122     -12533.11       4.1281481     -56499.433    
    365200   531.41201      3416.0551     -2710.6383     -6424.8216      4.1046504     -56481.716    
    365300   556.9945       3479.6266     -6467.486       5938.8918      4.1039482     -56480.905    
    365400   548.70214     -5703.098       15257.628     -2236.5377      4.1230231     -56466.087    
    365500   596.2845      -5506.8478      11752.644      3323.5051      4.1481666     -56482.526    
    365600   567.20618     -1340.6721     -756.09475      976.06199      4.1191026     -56463.018    
    365700   545.40008     -346.54622      488.10284     -2786.9179      4.0982054     -56462.685    
    365800   525.17373     -3991.765       9986.3062     -2031.0171      4.1226158     -56481.27     
    365900   538.58856      6044.7431     -5493.7128      2293.6598      4.1294945     -56509.208    
    366000   486.58322      21713.833     -1683.1076      2362.2716      4.138739      -56488.648    
    366100   491.66185      4225.1815      1336.4317      13541.154      4.1171864     -56491.963    
    366200   526.61918     -12712.405      8833.849      -5798.6051      4.1199916     -56505.98     
    366300   549.3403       5069.2206      8556.8997     -16964.806      4.1280307     -56507.093    
    366400   496.03137      7280.319       7133.4141      10509.753      4.1379058     -56462.813    
    366500   519.06926      7910.5059      6403.0518      11600.839      4.1241436     -56462.944    
    366600   541.64706      2087.5606      19882.776     -3634.1023      4.1435224     -56460.975    
    366700   523.18894     -10220.732     -8368.6073     -7563.3443      4.0748848     -56442.435    
    366800   566.19114      3528.086      -1005.9658     -12332.773      4.1243471     -56472.578    
    366900   523.55639      942.06474     -3610.5069      7477.1845      4.1445269     -56480.836    
    367000   488.18097     -10468.553      4515.6726     -748.51277      4.123258      -56488.661    
    367100   469.4349       6531.1709      15505.066      16322.166      4.1663488     -56486.508    
    367200   509.45848     -2839.9333      9415.9818      21290.454      4.136654      -56513.817    
    367300   493.45551      2873.9449     -1414.8532      5760.0537      4.1082404     -56503.705    
    367400   526.264        4279.8535     -14984.934      9721.716       4.116866      -56513.572    
    367500   461.64956      3514.322      -9094.3047      3474.0817      4.0932918     -56463.157    
    367600   535.76675     -8277.805      -9584.1602     -2494.1453      4.0940097     -56487.202    
    367700   564.02597     -23454.185     -14643.726     -15203.957      4.0744245     -56492.595    
    367800   556.14431      1429.1143     -10023.065     -11540.827      4.1010997     -56485.678    
    367900   532.74226      12763.754     -802.26732      3682.7389      4.1041685     -56476.023    
    368000   493.72299      12797.476      15256.322      9115.6926      4.1419151     -56470.279    
    368100   481.06419      7196.1138      11650.478     -5736.8607      4.1194971     -56492.261    
    368200   489.50224     -12444.722     -9004.5214      12301.417      4.131513      -56515.231    
    368300   471.39678     -13357.745     -11812.779     -10953.83       4.0943376     -56508.111    
    368400   496.40471     -9700.8138     -4665.0166     -605.63396      4.1044726     -56518.25     
    368500   468.12622     -4913.6186      17732.658     -3704.781       4.123678      -56490.251    
    368600   544.038       -6634.632      -4493.5498     -2515.525       4.1136818     -56520.438    
    368700   533.15134      759.53493     -4177.124       5203.2893      4.1165396     -56501.244    
    368800   511.92157     -5597.3345      3706.4552      1872.2479      4.1180566     -56479.324    
    368900   513.68314     -4593.2801     -4651.6513     -9075.0776      4.102767      -56474.198    
    369000   546.62982     -14152.114      1359.9674     -1807.903       4.1329438     -56493.414    
    369100   500.02946      2505.4023     -2830.0611      3622.3768      4.123424      -56481.408    
    369200   514.98083     -3445.1222      18854.056      1869.0266      4.1767033     -56518.107    
    369300   492.5121       2795.7814      6345.5859     -5116.4055      4.1234718     -56529.013    
    369400   461.6992       11977.092      2813.5523     -12150.387      4.1033411     -56514.351    
    369500   501.75857      1197.2042      3175.4202     -1819.4249      4.125324      -56530.604    
    369600   436.49142     -1252.0966      9064.5075      2771.6103      4.1163765     -56486.194    
    369700   524.56851     -485.22214      12062.161      8970.0025      4.1394509     -56519.484    
    369800   504.33889      9848.0598      1650.5904      9170.7799      4.1346586     -56498.254    
    369900   524.50554      6738.7226      8225.4703      3313.6841      4.113235      -56500.428    
    370000   482.12374     -90.351458      12345.126     -854.20745      4.1368897     -56470.214    
    370100   497.54078     -6497.8493     -8080.7992     -15711.2        4.0987243     -56480.6      
    370200   488.23745     -11485.44      -13750.717     -18394.613      4.0962569     -56481.425    
    370300   506.62192     -16837.76      -27147.444     -17146.358      4.0816587     -56510.674    
    370400   432.38269     -2321.1028     -10014.285     -14738.568      4.0929093     -56502.823    
    370500   481.11635     -3701.9976      3811.6585      4172.1776      4.1344666     -56540.309    
    370600   500.99719      9126.2098      5887.322       3623.1156      4.1482        -56547.542    
    370700   509.85959      7380.2745      9196.5306      10040.232      4.1544301     -56543.242    
    370800   514.99451      8628.7706      7129.8941      5556.6445      4.1457466     -56531.816    
    370900   526.85276      770.21419      967.86489     -419.70662      4.1249614     -56525.265    
    371000   499.58985     -3828.9284     -7310.6254     -4126.2543      4.1094428     -56500.229    
    371100   528.4094       527.37579      19.633114     -12108.35       4.1146347     -56509.972    
    371200   495.82987      2990.0364      7358.8113     -5107.2092      4.1145502     -56489.841    
    371300   509.40377      7583.6942      13508.097      20923.697      4.1481769     -56498.379    
    371400   489.76385      16433.079      1322.3646      11582.376      4.1389917     -56496.091    
    371500   476.79857      12108.204      22181.749     -2701.7565      4.153824      -56500.682    
    371600   485.41775      29.968681      5647.7054      5999.0116      4.1285263     -56528.166    
    371700   433.43593      5989.395       4194.019      -1783.5897      4.1256456     -56525.07     
    371800   413.96334     -4298.2719     -2331.9496      915.61915      4.1257327     -56521.437    
    371900   436.09039     -9444.7322      5797.9495     -5650.4434      4.1217745     -56528.09     
    372000   444.06028      3482.8969     -2097.4218     -3036.0052      4.1304649     -56522.194    
    372100   501.69254      12008.508      2482.765       2327.9098      4.1320151     -56537.18     
    372200   492.46825      22879.45       18237.088      7044.9542      4.1535037     -56515.933    
    372300   496.38347      12918.939      16668.023      3892.2838      4.1206122     -56505.224    
    372400   517.54079     -1019.0013      9567.8525      2496.1736      4.1399083     -56508.644    
    372500   478.81983      2848.1272     -7484.6262      1162.7579      4.1384308     -56485.302    
    372600   507.68123     -9843.2911     -2965.4141     -6215.9848      4.1238176     -56505.767    
    372700   504.95063      3904.3234      4612.0534     -6768.9967      4.1349727     -56518.842    
    372800   450.44209      2243.3254     -1662.6516     -13119.493      4.1140108     -56510.171    
    372900   500.34324     -10398.73      -6228.8851     -7484.4628      4.1321383     -56552.276    
    373000   440.89285     -9075.693      -2778.0306      3673.5531      4.1132941     -56523.274    
    373100   408.77968      16967.8        33417.168      16676.823      4.1731029     -56500.072    
    373200   483.41065     -402.57826      19436.831      13907.156      4.131681      -56533.277    
    373300   472.3084      -6124.5345     -3705.5905      422.88547      4.1196432     -56520.179    
    373400   444.17178     -14006.125     -15864.442      1537.4734      4.1004303     -56496.641    
    373500   490.20369     -7305.2431     -3903.3711     -7391.8007      4.1057655     -56514.983    
    373600   490.88539      145.2583       28576.4        17395.396      4.1659912     -56511.563    
    373700   496.87491      15109.609      16253.67       24310.262      4.1399777     -56512.744    
    373800   502.83969      25631.175      14193.539      34991.974      4.1690043     -56517.985    
    373900   471.18781      12755.635      17297.684      13648.332      4.1551629     -56515.302    
    374000   435.60977     -1384.2247      1726.7911     -2954.2766      4.1481224     -56509.991    
    374100   440.44061     -2388.8081     -17960.99      -13515.474      4.0974566     -56525.755    
    374200   466.49539      8539.8268      1272.8903     -4349.3515      4.1335208     -56545.761    
    374300   468.18174      11.382063      12123.937      13355.775      4.1378281     -56545.14     
    374400   462.38571      4482.8194      6536.4216      2748.4824      4.1266792     -56535.855    
    374500   469.40091      1299.525      -4631.7899      1213.3485      4.1250973     -56525.706    
    374600   459.89096     -10993.42      -1784.962      -3388.6258      4.1074951     -56503.01     
    374700   488.6309      -16542.106     -6023.7316     -15553.59       4.1051419     -56508.665    
    374800   468.51956     -8766.3804      2375.7111     -7429.3371      4.1274908     -56496.053    
    374900   450.97977      7279.8522      14941.671      4892.9892      4.1374064     -56488.124    
    375000   472.99812     -6807.242       9032.6625      1861.0983      4.1236416     -56509.428    
    375100   435.56703     -22720.122     -4809.0209     -14289.618      4.0850364     -56503.811    
    375200   445.70478     -22433.195     -13807.175     -20294.19       4.0845853     -56524.075    
    375300   467.23532     -786.53385     -9029.7067      3187.0216      4.1326813     -56543.902    
    375400   481.89153      1814.5849      7263.6419     -1483.7751      4.135038      -56553.448    
    375500   438.66684     -5339.281       4392.5333     -5671.4041      4.1225724     -56529.922    
    375600   438.29236      11259.442     -4790.7243     -14174.948      4.1497587     -56522.409    
    375700   487.51517      16409.564     -5054.9647     -6826.164       4.1367369     -56540.526    
    375800   480.02636      14253.059      1865.9263      16719.258      4.147853      -56528.104    
    375900   507.73049      22034.546      22569.432      24151.888      4.1717113     -56536.035    
    376000   456.47646      30635.377      5501.3079      25896.146      4.1489149     -56502.337    
    376100   491.8346       3110.565       1565.8012      10403.81       4.130893      -56519.957    
    376200   462.43086     -14901.177      2479.0279      8646.2272      4.1099583     -56510.569    
    376300   501.1078      -3978.3069      5374.2501     -794.28911      4.1253389     -56547.875    
    376400   423.65056      1466.8295     -9557.859      -4747.7427      4.112398      -56524.909    
    376500   463.26384     -9290.7403     -8145.52       -9253.5584      4.1219259     -56558.27     
    376600   466.08397     -2747.9715     -7799.6438     -4780.2843      4.1152335     -56561.93     
    376700   403.68804     -3194.7734     -3910.5486      2446.8148      4.1446847     -56526.597    
    376800   422.98966      8313.7855      2191.653       12259.643      4.1584242     -56527.509    
    376900   405.25395      16019.372      3185.8742      11400.324      4.1429077     -56503.248    
    377000   467.16491      10035.537     -6307.5881     -4643.0807      4.1186103     -56523.743    
    377100   480.87482      8821.5248      8000.9646     -11149.168      4.1391649     -56523.093    
    377200   450.36233      7577.3197      10743.404      16560.284      4.1483938     -56505.753    
    377300   485.52398      6996.5483      19022.628      11186.892      4.1489127     -56528.61     
    377400   460.78865      13780.027      12584.107     -794.53462      4.1480515     -56519.815    
    377500   466.47095     -9158.6638     -7428.0267     -10667.208      4.1192309     -56530.789    
    377600   446.64252      10818.255      8853.2892      2744.0223      4.1707656     -56530.806    
    377700   471.69507      18763.792      13633.294      15247.317      4.1737883     -56552.791    
    377800   462.85126      6991.8734      6396.9529     -2198.0342      4.1350332     -56555.64     
    377900   435.00614      8876.0394      3077.8165     -1927.847       4.141168      -56546.658    
    378000   421.66229      798.04283     -1997.7181      6360.7422      4.1329412     -56541.603    
    378100   399.47262     -3550.7856      4351.8845      11596.929      4.1434871     -56529.002    
    378200   450.69643      9800.6184      9729.8184      11949.316      4.1235706     -56548.831    
    378300   482.54383      3470.3165      6915.7816      1739.4478      4.1316942     -56548.147    
    378400   488.4172      -3982.1613     -3678.4817     -7198.3719      4.1122667     -56535.742    
    378500   495.8558      -12108.032      2375.974       10783.477      4.1299355     -56534.937    
    378600   438.79598      1199.9426      7816.4171     -4865.7947      4.1161289     -56504.66     
    378700   427.94138     -6761.4462     -10069.379     -5310.6391      4.1005187     -56507.848    
    378800   461.66989     -12276.028     -7732.456      -14381.215      4.1116055     -56542.772    
    378900   468.17313     -4123.7558     -26723.673     -13962.5        4.0982163     -56562.795    
    379000   420.55772     -19319.706     -21361.791     -10681.465      4.1118352     -56547.018    
    379100   410.2177      -6064.8337     -4447.6983     -13125.212      4.1264595     -56540.015    
    379200   422.06846      4170.3571      4581.7826     -1563.5767      4.1147661     -56543.931    
    379300   437.9682       12266.952      6555.7447     -1072.2535      4.1324594     -56548.785    
    379400   439.43898      3103.836       6246.7523      14595.104      4.1554642     -56543.246    
    379500   439.9351      -9332.0458     -5688.7998     -3460.8531      4.1060843     -56537.773    
    379600   438.0573      -882.28457      2139.9861     -9643.9173      4.1244047     -56530.775    
    379700   472.81696      4967.4365     -3218.146      -4941.0855      4.1283946     -56542.938    
    379800   452.15143      11910.349      5962.9919      2761.4448      4.1507458     -56522.191    
    379900   501.97156     -1841.4624      1916.1417      2061.0932      4.1110504     -56538.881    
    380000   475.09322      3277.8406     -1000.0519      11803.238      4.1088647     -56521.056    
    380100   458.82983      7848.2556      4963.3286      7414.9987      4.1362497     -56521        
    380200   441.75618      6405.094      -13108.116     -4947.069       4.1081895     -56530.101    
    380300   424.28248      6452.2206      9117.1916      1277.9218      4.146281      -56538.584    
    380400   402.62335      26143.148      8116.3962      16591.178      4.1715324     -56535.788    
    380500   454.95963      210.98305     -1225.0103      3419.4789      4.1464789     -56568.388    
    380600   416.47814     -10503.327     -17979.803     -13644.618      4.0929954     -56549.197    
    380700   428.4751      -23149.439     -10624.886     -6864.6726      4.1013659     -56556.687    
    380800   410.84818     -12667.396     -3853.552      -17595.846      4.1041309     -56544.219    
    380900   447.15207     -6786.1114     -15005.836     -13371.647      4.1045246     -56560.985    
    381000   448.50744     -16850.03      -8027.4857      10555.502      4.1213206     -56550.082    
    381100   444.29105     -8707.674      -1813.356      -875.2887       4.1215669     -56532.486    
    381200   431.21745     -6367.9454      6587.4344      8290.9013      4.126629      -56514.787    
    381300   467.93517      3580.9193      4421.627       10066.586      4.137325      -56531.886    
    381400   439.21567      3482.8996      2522.3754      10979.286      4.1230296     -56524.127    
    381500   451.75448     -10557.099     -1577.4612      12861.187      4.134969      -56552.612    
    381600   439.28652      4610.0844      7352.1674     -1836.6246      4.1410044     -56561.086    
    381700   427.63314     -5361.2981     -16534.149     -6719.4699      4.1076304     -56561.295    
    381800   444.48411      2039.8561     -6314.9647     -16234.085      4.1350916     -56572.544    
    381900   443.45017      8988.7928      9962.816       4465.8805      4.1669751     -56571.266    
    382000   412.61942      3455.3289      12455.974      4366.396       4.121839      -56551.532    
    382100   429.81458      5756.0052      6464.4886     -4646.3813      4.1276337     -56555.23     
    382200   421.48102     -67.018658      15102.048     -3426.758       4.1478561     -56542.866    
    382300   459.48025      6732.716       14504.662      18298.522      4.1360946     -56551.373    
    382400   452.87183      8535.7117      17580.599      16251.703      4.1589362     -56534.613    
    382500   480.3535      -3305.5507     -7666.5428     -13805.084      4.1071824     -56540.421    
    382600   454.20716     -3756.5844     -6027.1078     -11474.465      4.1226655     -56527.124    
    382700   442.2611       2659.1104     -543.46262      1672.1996      4.1346548     -56540.438    
    382800   424.0699       3995.5271      4996.8302      7935.3269      4.1283324     -56553.497    
    382900   461.04001      141.00303      6187.3144     -3949.4084      4.1374234     -56583.814    
    383000   387.23952     -1764.101      -3966.8007     -7078.1102      4.1195637     -56549.974    
    383100   448.6765      -4800.1661     -12701.711     -8238.9276      4.1179156     -56586.289    
    383200   425.25374     -4809.3981     -6753.3018      486.49536      4.1271858     -56574.961    
    383300   419.26233     -1595.544       2301.1045     -7428.0729      4.1318852     -56570.736    
    383400   385.62478      4276.5472     -3612.4917     -6108.3473      4.1382654     -56549.679    
    383500   416.69159      5403.4988     -4869.461      -1722.3491      4.1371483     -56558.639    
    383600   424.83174     -329.00511     -10825.194     -2332.1122      4.114077      -56548.169    
    383700   436.63327      2626.972      -14690.166     -10140.631      4.1382499     -56543.229    
    383800   455.31053     -15328.179     -5433.6144     -8025.045       4.1161725     -56550.075    
    383900   430.88274     -9058.9899     -7189.2233     -11679.413      4.1024088     -56540.885    
    384000   405.07062     -8307.8586     -706.84904      3922.1813      4.1092518     -56545.075    
    384100   405.93653     -2993.7392     -777.46452      12164.68       4.1368589     -56566.043    
    384200   399.86859      538.42377      1845.8668      10209.546      4.1404002     -56568.739    
    384300   389.73582     -499.54029      5264.2196      3056.4559      4.1516687     -56564.118    
    384400   377.18112      5527.663       2567.8661      2791.8509      4.1411122     -56556.426    
    384500   398.31881     -5572.4464     -111.39419      11092.515      4.1155212     -56565.956    
    384600   399.7549       6593.4875     -495.38645     -15294.087      4.1138312     -56561.347    
    384700   409.67962      12281.542      5682.1248     -2774.3376      4.1471191     -56560.197    
    384800   443.89921      13549.693      5052.4446     -810.76149      4.1476806     -56564.464    
    384900   437.40957     -1240.816      -4071.2438     -12915.687      4.1246502     -56547.628    
    385000   430.8659      -6351.3653     -5239.221       7741.9632      4.1314608     -56540.632    
    385100   423.94899      13933.456      8219.7154      15262.519      4.1570175     -56544.249    
    385200   420.08821      8963.2999      7608.8166      5474.8631      4.1377129     -56564.629    
    385300   425.13576      1920.7786      2932.8568      8036.3711      4.1537154     -56585.041    
    385400   373.59602      14287.174      3426.5291      5098.5637      4.1403622     -56562.044    
    385500   394.34985     -1642.3947     -768.06504      16566.669      4.1486174     -56573.074    
    385600   394.63655      5687.4477      9131.2954      1343.2999      4.1531392     -56570.491    
    385700   410.89346     -4437.1379      1276.8724     -1995.8973      4.1246974     -56576.313    
    385800   381.54755     -10245.699     -468.12226     -5426.1954      4.1321653     -56556.843    
    385900   424.23595     -12507.084     -17900.406     -18738.771      4.1077847     -56574.683    
    386000   418.38299     -6666.1705     -18598.238     -11132.567      4.0992788     -56563.745    
    386100   429.97727     -3158.9682     -8623.9128     -4647.739       4.1231257     -56561.33     
    386200   451.88546      553.58404     -1027.2594      36.386582      4.1220394     -56567.569    
    386300   399.28516      3425.4314      6882.4487      15609.761      4.1388357     -56543.195    
    386400   404.65629     -318.70669      490.7596      -7852.6178      4.1340855     -56562.948    
    386500   391.64667     -7068.8968     -5699.6808     -12455.321      4.1361098     -56574.604    
    386600   363.36523     -14028.059      277.84819     -4961.6601      4.1428397     -56568.466    
    386700   382.80265     -3016.7074      10016.187     -5981.9395      4.1433225     -56581.334    
    386800   384.92229     -5305.2283      3948.4049     -2292.8422      4.1337936     -56581.719    
    386900   394.44259     -8750.4807     -3721.586      -10961.37       4.1366979     -56582.739    
    387000   383.599       -6660.3724      6271.0997     -271.14907      4.1368004     -56570.56     
    387100   383.17865     -1885.9351      3101.3168     -3644.3895      4.1368673     -56559.613    
    387200   441.69482     -1007.3403     -4021.9735     -10500.715      4.1275098     -56575.178    
    387300   425.05453     -6246.0769     -877.7189       3942.007       4.1182575     -56556.182    
    387400   411.31793      5643.4961      4251.8892      3999.5039      4.1293065     -56549.467    
    387500   425.14118      17128.822      578.05725      17163.852      4.172301      -56568.544    
    387600   369.25414      8912.4731      4608.9503      9612.2308      4.1568665     -56561.808    
    387700   371.8146       6328.8824     -4097.2431      5070.9479      4.1198337     -56575.957    
    387800   380.98408      7386.0582     -3208.0722      15929.785      4.1399446     -56583.293    
    387900   352.25537      14363.973      7005.94       -7026.8979      4.1398836     -56565.262    
    388000   380.37768     -666.58323     -401.4814      -8467.3083      4.1451656     -56576.966    
    388100   381.138       -1605.409       374.83224      2829.3361      4.1390285     -56574.228    
    388200   384.83645      10572.511      2146.4597     -2987.2886      4.1416478     -56574.838    
    388300   389.04822     -3024.3431      4392.1722      14314.473      4.1433917     -56573.163    
    388400   400.58377      9549.6842      9253.5044     -2404.0216      4.1542264     -56578.575    
    388500   409.08637      4842.5924      17665.664     -4948.8016      4.1508059     -56584.229    
    388600   389.75884      1730.0914      18193.821      9912.1543      4.1728995     -56579.638    
    388700   358.05144      3041.2423      10440.231      2249.3634      4.1416723     -56572.688    
    388800   331.46167      2005.8282      1355.2473     -313.84197      4.1177861     -56568.832    
    388900   336.58067      2491.122       1326.9485     -5186.4241      4.1479808     -56580.509    
    389000   357.30832      2993.2997     -1984.8873      8087.8013      4.1485231     -56594.614    
    389100   350.32674      7531.0854     -2364.0725      21845.902      4.150868      -56587.213    
    389200   367.90357      5247.388       2510.9893     -1455.7149      4.1446335     -56585.769    
    389300   382.19618      11340.329      1226.0767      4095.4222      4.1380515     -56573.178    
    389400   380.89373     -1704.8731      7265.1199      4116.2739      4.1315451     -56560.033    
    389500   381.72193      1503.5465     -5570.6801     -4725.3312      4.1090789     -56560.989    
    389600   397.00023      3051.7439     -4507.5044      5676.6651      4.1226542     -56574.556    
    389700   359.52601      13093.34       4835.3838      10121.305      4.1545895     -56561.308    
    389800   357.80657      12270.108      9386.8474      13157.241      4.1629827     -56571.025    
    389900   366.43527      6579.8509      12732.976      9013.3345      4.1630546     -56585.516    
    390000   363.42934      6439.0057      12196.064     -365.96728      4.1580939     -56588.762    
    390100   363.99897      9190.9651     -169.81465      1284.8238      4.1580045     -56591.578    
    390200   368.92211     -142.4513       6017.8445     -7515.2239      4.1541467     -56594.366    
    390300   344.11718      2665.4851     -14482.639     -479.56999      4.1332114     -56579.139    
    390400   357.00296      2151.8092     -18456.961      2395.6714      4.1179147     -56584.381    
    390500   362.55257     -11741.877     -2476.3187      6449.2264      4.122384      -56583.75     
    390600   374.68005     -11269.623     -17182.673     -12026.436      4.1129105     -56584.743    
    390700   373.81504     -6774.1069     -20648.79      -17789.578      4.1188475     -56569.587    
    390800   408.28834     -4105.4935     -16749.691     -5359.7813      4.1135206     -56566.602    
    390900   393.38889     -3332.2904     -3062.3559     -5005.5659      4.1156353     -56549.993    
    391000   419.84361      3019.8751      7641.5501      4859.1403      4.1500853     -56571.208    
    391100   380.09259      7804.0506      8201.0345      11989.777      4.1344291     -56566.621    
    391200   366.62912      10303.759      15072.213      10594.295      4.1451433     -56575.516    
    391300   394.06086      4146.5642      18792.867      21808.465      4.138191      -56597.956    
    391400   339.86465      12746.911      19685.578      11798.678      4.1608437     -56574.581    
    391500   351.06951     -5055.934       1104.1546      7147.5792      4.1246618     -56587.293    
    391600   378.27777     -9734.1223      4278.9015     -5481.3196      4.134408      -56606.586    
    391700   341.16821      4622.0637     -1911.5673     -1304.4823      4.1499978     -56588.322    
    391800   347.74438     -921.4241       996.61147      2317.7717      4.1266794     -56593.471    
    391900   346.83059      4320.9101     -1072.8304     -536.10599      4.1216378     -56593.434    
    392000   352.65385     -6149.2916      3976.396       146.01392      4.1275824     -56595.594    
    392100   335.94251     -5269.1722      4635.6932     -145.79805      4.1345114     -56580.026    
    392200   344.97716     -739.98762     -8399.2764      1147.2647      4.1284958     -56578.481    
    392300   359.24653     -7722.1158     -530.6985       4173.4822      4.1109444     -56579.164    
    392400   352.89174      16693.072      13672.32      -2004.7623      4.157076      -56573.929    
    392500   388.02744     -206.66431      8457.0811     -8823.2376      4.1376204     -56595.495    
    392600   349.98389     -13209.045     -14937.06      -7430.5235      4.1134465     -56583.41     
    392700   352.94042     -10094.246     -20091.17      -21174.879      4.1191553     -56599.471    
    392800   344.85475     -5107.6038     -9101.4417     -16888.666      4.1316668     -56604.605    
    392900   356.64942     -20961.276     -7239.2823     -6729.6181      4.1194364     -56615.436    
    393000   340.79048      567.5879      -653.49624     -6851.5845      4.1472103     -56607.541    
    393100   358.02883     -6317.9055      6203.3616     -4876.2996      4.141446      -56614.013    
    393200   349.65604     -476.98189      6513.4021     -7732.9212      4.1419294     -56604.341    
    393300   357.92968      13666.344      14137.679     -1919.0894      4.1376653     -56599.334    
    393400   367.04618      2445.5761      9607.9435      28952.593      4.1769753     -56591.192    
    393500   383.53459      13538.085      15446.464     -2099.8907      4.1688799     -56582.174    
    393600   372.40247      3607.1419      16637.99      -762.27649      4.1618783     -56565.55     
    393700   406.91157      13171.045      3904.5447     -9729.5338      4.1238786     -56587.05     
    393800   341.55363      2806.0527      17800.564      21912.903      4.1602938     -56569.99     
    393900   349.79828      2682.1294      10395.634     -8399.296       4.1616703     -56593.836    
    394000   337.79434     -576.18617     -17177.016     -5110.2193      4.1342118     -56592.942    
    394100   339.75417      2491.8079      4930.3583      5535.7157      4.1501029     -56596.378    
    394200   343.86538      3718.1983      4327.0487     -1891.49        4.1433683     -56603.21     
    394300   348.42038     -5886.6221      557.98626     -4252.7162      4.1487707     -56609.213    
    394400   342.20748     -4710.3771     -3666.8454      7515.5369      4.1563152     -56610.017    
    394500   323.7496      -7706.7563      56.363006     -17749.481      4.124487      -56602.732    
    394600   322.06951      1136.6309     -3268.7051     -408.70754      4.1506868     -56605.19     
    394700   301.55428      10314.686      12456.098      2700.3918      4.1637829     -56593.76     
    394800   336.92239      24663.757      16113.602      12332.304      4.1824719     -56608.53     
    394900   350.1799       21962.632      28792.213      20269.654      4.1782048     -56607.981    
    395000   320.91766      28628.106      13683.39       26595.885      4.1866399     -56583.553    
    395100   376.73226      6395.5388      5042.6161      23098.355      4.1593775     -56603.865    
    395200   374.49152      10167.157      1078.1769      4090.3909      4.1435827     -56597.44     
    395300   358.50071     -3485.8193     -1017.4192     -2546.8918      4.1382474     -56593.421    
    395400   333.95368     -5184.0148     -3323.689      -1072.8644      4.1387845     -56594.237    
    395500   327.77192     -5022.2892      3335.4025      1225.8089      4.1685864     -56608.274    
    395600   322.36242     -13034.972     -2329.3854     -6546.5839      4.1376299     -56611.614    
    395700   328.55993     -4026.2202     -3635.1095     -5518.3103      4.1332193     -56616.155    
    395800   342.46451     -3513.3268     -3710.3978     -4540.8874      4.1101799     -56622.28     
    395900   345.80064      2275.9291      4711.3527      10839.149      4.1403942     -56619.937    
    396000   323.39007      405.73097      958.34481      5261.1031      4.1586887     -56602.582    
    396100   332.18239      7034.9001     -2414.4799     -8362.281       4.1451551     -56600.861    
    396200   370.56061     -3771.4168     -6198.8769     -11705.523      4.1274176     -56617.181    
    396300   341.5579       5808.2001     -4403.6768     -4690.5699      4.1297712     -56597.862    
    396400   361.21478     -4687.9585     -1562.982       15375.507      4.1446428     -56610.413    
    396500   326.67262     -2726.0117      6696.2465      5762.3217      4.1379188     -56600.554    
    396600   306.05477     -9497.6852      2838.0944      3359.34        4.1411605     -56604.025    
    396700   299.6816      -370.5086      -5536.146       646.13918      4.1214707     -56609.507    
    396800   301.79043      245.02855     -7340.5701     -2535.7754      4.1318394     -56613.969    
    396900   312.26902      8902.9699     -625.8294       3783.4938      4.1530312     -56618.73     
    397000   301.76406      5530.4091      2864.1972      8287.209       4.1542547     -56609.664    
    397100   324.30119      8.0475604      1007.3348     -3401.6942      4.1469615     -56614.787    
    397200   356.32617      11225.723      5426.9614     -1105.9563      4.1506185     -56618.938    
    397300   348.33071      10073.511      6403.8073      2253.6063      4.1544666     -56603.113    
    397400   361.06612      1031.8371     -2985.7767      2551.0708      4.1424388     -56606.521    
    397500   341.76078      5560.8721      19480.537      8964.6187      4.170869      -56599.184    
    397600   345.09848      5814.5172     -2701.1246      2842.9732      4.1601364     -56609.772    
    397700   336.62575     -18207.332     -7723.8272     -17852.281      4.1218391     -56611.642    
    397800   306.80507     -6384.5376     -1938.6592     -9312.3922      4.1410097     -56599.337    
    397900   317.77864      3848.9137     -202.66325     -98.492315      4.1411147     -56609.929    
    398000   307.55966      7274.1805      9290.6653      7997.4307      4.1719859     -56609.916    
    398100   330.37946      13735.233      17915.415      4827.5706      4.1807628     -56628.379    
    398200   301.16288     -68.037221      24718.077      7599.0726      4.1844151     -56618.567    
    398300   314.47089     -1781.4542      10051.482     -4758.0355      4.1531704     -56630.858    
    398400   297.56812      4124.8864     -3785.1797     -9108.823       4.1207837     -56625.719    
    398500   289.45231     -2039.5523     -10889.339     -7158.5081      4.1280585     -56624.225    
    398600   320.0235      -16650.453     -8350.1427     -7358.3795      4.1326444     -56639.502    
    398700   298.17812     -3619.5142      1358.0549     -5836.089       4.139405      -56620.83     
    398800   294.9441       9481.5675      5466.2464      15136.636      4.1581093     -56607.802    
    398900   327.51556      15289.664      3112.8488      5422.3508      4.150082      -56615.324    
    399000   318.57384      10253.334     -2205.9558     -3339.9958      4.159009      -56605.946    
    399100   345.28956     -4507.7396      2789.9986     -3491.9177      4.1495602     -56621.318    
    399200   309.55861      2846.3337     -742.95861      1053.0082      4.1598157     -56607.612    
    399300   295.59102      3740.1126     -4236.7176     -9934.7897      4.1257974     -56611.356    
    399400   298.89994     -7139.5401     -2047.9755     -5863.586       4.136467      -56624.175    
    399500   266.31766     -4812.9155     -5155.5254      1088.6454      4.1401223     -56610.963    
    399600   287.21665     -2993.7483     -4641.9573     -1605.5877      4.1408186     -56622.566    
    399700   287.94868      1117.7613      7000.0327     -1446.1801      4.1519727     -56621.014    
    399800   298.05466      3355.4928     -5528.7017      4164.9594      4.1415407     -56623.617    
    399900   293.51637     -1362.1273     -2227.2897     -4362.0253      4.1543628     -56618.746    
    400000   305.57236      464.61548     -5976.0321     -4662.4222      4.1373796     -56621.699    
Loop time of 477.354 on 1 procs for 400000 steps with 189 atoms

Performance: 36.200 ns/day, 0.663 hours/ns, 837.953 timesteps/s, 158.373 katom-step/s
99.9% CPU use with 1 MPI tasks x no OpenMP threads

MPI task timing breakdown:
Section |  min time  |  avg time  |  max time  |%varavg| %total
---------------------------------------------------------------
Pair    | 367.29     | 367.29     | 367.29     |   0.0 | 76.94
Kspace  | 65.847     | 65.847     | 65.847     |   0.0 | 13.79
Neigh   | 36.123     | 36.123     | 36.123     |   0.0 |  7.57
Comm    | 4.6088     | 4.6088     | 4.6088     |   0.0 |  0.97
Output  | 0.073128   | 0.073128   | 0.073128   |   0.0 |  0.02
Modify  | 2.7093     | 2.7093     | 2.7093     |   0.0 |  0.57
Other   |            | 0.7047     |            |       |  0.15

Nlocal:            189 ave         189 max         189 min
Histogram: 1 0 0 0 0 0 0 0 0 0
Nghost:           3259 ave        3259 max        3259 min
Histogram: 1 0 0 0 0 0 0 0 0 0
Neighs:          40418 ave       40418 max       40418 min
Histogram: 1 0 0 0 0 0 0 0 0 0

Total # of neighbors = 40418
Ave neighs/atom = 213.85185
Neighbor list builds = 43628
Dangerous builds = 0

#      minimize          1.0e-6 1.0e-3 1000 1000000

write_data        ${runString}.data nocoeff
write_data        cool_npt.data nocoeff
System init for write_data ...
Ewald initialization ...
  using 12-bit tables for long-range coulomb
  G vector (1/distance) = 0.29065306
  estimated absolute RMS force accuracy = 0.033227763
  estimated relative force accuracy = 0.00010006442
  KSpace vectors: actual max1d max3d = 128 4 364
                  kxmax kymax kzmax  = 4 4 4
Generated 0 of 1 mixed pair_coeff terms from geometric mixing rule
Total wall time: 0:07:57
