LAMMPS (22 Jul 2025 - Update 2)
# TIO2 MELT QUENCH

variable runString string hot_npt

units             real
dimension         3
atom_style        charge

boundary p p p
read_data         hot_nvt.data
Reading data file ...
  orthogonal box = (0 0 0) to (16 16 16)
  1 by 1 by 1 MPI processor grid
  reading atoms ...
  189 atoms
  reading velocities ...
  189 velocities
  read_data CPU = 0.001 seconds

pair_style buck/coul/long 10.0
pair_coeff 2 2 717654 0.154 120.997
pair_coeff 1 2 391053 0.194 290.392
pair_coeff 1 1 271719 0.234 696.941

kspace_style      ewald 1.0e-4

#fix               F1 all nve
fix               F2 all npt temp 3000.0 3000.0 $(100*dt) iso 0 0 $(100*dt)
fix               F2 all npt temp 3000.0 3000.0 100 iso 0 0 $(100*dt)
fix               F2 all npt temp 3000.0 3000.0 100 iso 0 0 100
#fix               F3 all nvt temp 3000.0 3000.0 $(100*dt)
#fix               F4 all temp/rescale 1 10.0 10.0 5.0 1.0

#velocity          all create 800.0 97475745 dist gaussian

group Ti type 2
63 atoms in group Ti
group O type 1
126 atoms in group O

#compute TiMSD Ti msd com yes average no
#compute OMSD O msd com yes average no
#fix 1 Ti ave/time 1 1 200 c_TiMSD[*] file ${runString}.msdTi mode vector
#fix 2 O ave/time 1 1 200 c_OMSD[*] file ${runString}.msdO mode vector


neighbor          0.3 bin
neigh_modify      delay 0 every 1 check yes

thermo            100
thermo_style custom step temp pxx pyy pzz density pe

dump D1 all custom 10000 ${runString}.dump id type x y z ix iy iz
dump D1 all custom 10000 hot_npt.dump id type x y z ix iy iz


timestep          0.5
run               400000
Ewald initialization ...
  using 12-bit tables for long-range coulomb
  G vector (1/distance) = 0.28450507
  estimated absolute RMS force accuracy = 0.033213181
  estimated relative force accuracy = 0.00010002051
  KSpace vectors: actual max1d max3d = 257 5 665
                  kxmax kymax kzmax  = 5 5 5
Generated 0 of 1 mixed pair_coeff terms from geometric mixing rule
Neighbor list info ...
  update: every = 1 steps, delay = 0 steps, check = yes
  max neighbors/atom: 2000, page size: 100000
  master list distance cutoff = 10.3
  ghost atom cutoff = 10.3
  binsize = 5.15, bins = 4 4 4
  1 neighbor lists, perpetual/occasional/extra = 1 0 0
  (1) pair buck/coul/long, perpetual
      attributes: half, newton on
      pair build: half/bin/atomonly/newton
      stencil: half/bin/3d
      bin: standard
Per MPI rank memory allocation (min/avg/max) = 11.98 | 11.98 | 11.98 Mbytes
   Step          Temp           Pxx            Pyy            Pzz          Density         PotEng    
         0   3064.7279     -20167.333     -4759.9965     -2007.9261      2.0397933     -53422.903    
       100   3165.6012      605.55705     -15059.271     -11937.944      2.0760764     -53503.809    
       200   3037.9318     -1984.7966     -15456.442     -22625.145      2.0942273     -53475.401    
       300   2842.3937     -212.54138     -2460.0464     -19819.83       2.128791      -53487.116    
       400   2891.9201     -11264.264     -8233.9019     -5415.4036      2.2183361     -53647.052    
       500   2633.8009      17972.59      -5455.5106     -4394.4481      2.3280025     -53554.147    
       600   3052.0615     -2660.3995     -9438.9814      18342.459      2.3349429     -53783.698    
       700   2948.5156      12786.37       2301.188       13621.481      2.3806782     -53709.248    
       800   3015.7794     -191.25119     -14338.775      1374.9657      2.3571704     -53739.273    
       900   3154.3184      6515.2871     -5206.8347      988.82314      2.4135198     -53806.181    
      1000   2885.7462      3178.5156     -6152.3994     -10393.755      2.350417      -53696.992    
      1100   2960.4991     -4996.8796     -11592.489      12624.758      2.4819094     -53787.584    
      1200   2718.3402     -2351.7065     -20536.836      9812.0288      2.4877432     -53706.265    
      1300   2727.789       1653.7281      7217.9163      8095.5586      2.4901142     -53774.682    
      1400   2888.4144     -3873.1117     -9726.1596     -17500.056      2.6124911     -53943.08     
      1500   2824.6785      5099.3951     -2285.1927     -45344.504      2.6568971     -53974.398    
      1600   2792.6691      21556.17       13168.391     -16071.737      2.7572824     -54004.571    
      1700   2817.1376      14995.038     -9905.8235     -3925.278       2.7419593     -54001.136    
      1800   2893.3448      7070.4028      29965.788      21607.429      2.811596      -53959.38     
      1900   2922.6576      16564.216     -4824.9131     -10411.733      2.7266311     -53844.352    
      2000   3061.4669      25808.436      45864.068      34361.216      2.8275012     -53830.127    
      2100   2792.9138      6474.6278      36420.738      28779.474      2.7521948     -53628.879    
      2200   3237.5338      13417.427      14941.778      7446.6117      2.8685298     -53848.899    
      2300   2950.4615     -12806.792     -3859.1527     -26482.877      2.8726918     -53705.319    
      2400   3148.6094      9953.8022     -194.56224     -18173.37       2.9312828     -53873.088    
      2500   3152.4793      3573.6944      2938.1345     -10742.631      2.8914373     -53972.376    
      2600   2976.7554      9873.7984     -16443.213      17218.223      2.9707653     -53980.831    
      2700   2817.9198      6714.3908     -5197.7432      3224.8472      2.963112      -53939.146    
      2800   2969.4473     -2396.6281      759.99027      37140.415      3.0342166     -54027.25     
      2900   3072.9117      20190.356      14305.827      14723.296      3.1173865     -54046.411    
      3000   3110.3709     -5775.0488     -10266.412      50514.596      3.16215       -54028.81     
      3100   3197.8948     -6639.1296      9017.9507      3301.4767      3.0988429     -54064.727    
      3200   3053.0357      15592.674      1249.2618      11957.056      3.1764286     -54016.91     
      3300   3109.7337     -6828.7688      33900.406      1237.2355      3.0812429     -54083.94     
      3400   2912.0786     -23221.539     -47271.247     -11461.801      2.9969818     -54063.811    
      3500   2613.9273     -13163.461     -22993.457     -25077.283      2.9617123     -54017.683    
      3600   2697.4553     -41272.679     -29884.106     -13585.097      2.9812761     -54100.979    
      3700   2801.325       4023.2255      1393.5013      5937.5199      3.0802912     -54128.022    
      3800   2915.5084      5116.5951      5984.9602     -3458.0952      3.1296017     -54111.467    
      3900   3046.0234      14159.752      1187.9179     -5546.2687      3.0810687     -54042.677    
      4000   3097.5263      13272.569      5530.702       4696.9411      3.0495777     -53995.53     
      4100   3067.1883      16376.272     -7645.8597     -4100.5348      3.1121528     -53955.651    
      4200   2954.4448      24912.158      9472.0154      12842.311      3.1692561     -53884.876    
      4300   2898.4588      17939.453      1052.0683      30977.209      3.1641405     -53872.056    
      4400   3223.6044      9699.5033     -3823.7541      4908.3577      3.2023314     -54078.272    
      4500   3272.4189     -6666.4628     -302.28329      7814.4884      3.2867235     -54190.833    
      4600   3019.7611      5244.3005     -14143.825      8142.1709      3.2796365     -54178.732    
      4700   2838.2508     -35125.808     -5871.8328     -2439.0897      3.1847734     -54137.04     
      4800   2717.1234     -13978.014      8798.5986      4627.8163      3.3424455     -54058.735    
      4900   2714.5858     -14703.978     -8746.5568      10838.415      3.3210937     -54002.817    
      5000   2926.3373     -38874.494     -12858.706      5970.0888      3.3233946     -54056.326    
      5100   2937.4013     -30894.127      11703.97       19743.86       3.3584171     -54020.731    
      5200   3083.4717     -342.97464      22329.474      36165.84       3.3624526     -54076.891    
      5300   2920.7253      19549.87      -11860.161      52061.566      3.3441709     -53978.753    
      5400   3262.4702     -24476.405      16083.423      22052.957      3.3932891     -54198.46     
      5500   3231.6716      24678.63       43412.255      22663.099      3.4975513     -54245.132    
      5600   2861.427      -11239.05       24195.114      12258.493      3.4094254     -54143.859    
      5700   2776.0524      270.8721      -9689.1716     -5114.8686      3.3487791     -54195.013    
      5800   2855.6391     -34820.814      30338.86      -17677.929      3.3926609     -54294.406    
      5900   2989.8175     -4471.6767      7066.7416      13799.775      3.4854237     -54402.779    
      6000   2638.1643      5023.9952      10440.529      1760.0091      3.4898582     -54236.145    
      6100   2941.5836     -14230.18       16874.718     -18857.846      3.4894516     -54406.789    
      6200   3021.0919      11476.221      30694.451      7053.8962      3.5514437     -54369.513    
      6300   3145.5883      19321.493     -10683.793     -8236.4191      3.5105622     -54344.006    
      6400   3142.766       21141.341     -2560.5022      18537.274      3.5071328     -54240.401    
      6500   3049.3952     -56551.863     -34816.384     -33189.495      3.3692188     -54137.369    
      6600   3042.6975     -13108.009     -39238.234     -34956.009      3.4384041     -54112.129    
      6700   2938.9853      652.14521     -27669.556     -59185.862      3.3708951     -54106.282    
      6800   3088.9398     -6999.2845     -24906.488     -26437.772      3.5264637     -54257.498    
      6900   3107.619      -2578.9765      29802.91       2563.3266      3.629682      -54351.702    
      7000   3030.3168      3041.7         10831.567      29659.446      3.5583918     -54382.664    
      7100   2665.1394     -3862.4005      66470.028      22220.636      3.5760256     -54241.587    
      7200   3164.3466      6828.2582      38285.039      22743.952      3.6519764     -54556.124    
      7300   2792.1761      46136.821      35222.298      53571.001      3.6460202     -54364.466    
      7400   2990.3774     -11838.246      18137.92       5759.6272      3.5910783     -54443.307    
      7500   2960.055       4716.5236      9438.8226     -23926.523      3.5718677     -54322.402    
      7600   3252.2686     -3763.659      -32702.512      444.77388      3.5511375     -54388.027    
      7700   2856.4143      16940.957      30396.807     -43426.18       3.5603365     -54110.981    
      7800   3216.4889      33297.083     -3121.4766      22659.147      3.6228775     -54277.424    
      7900   3041.8229      26309.3        50286.111      9207.4241      3.5629086     -54157.912    
      8000   3070.954      -4640.0474      10980.779      12721.573      3.5558893     -54144.254    
      8100   3112.121       58205.099      2628.849      -10485.805      3.6404595     -54158.535    
      8200   3019.3461      28929.465      6577.6156      43150.65       3.5968355     -54134.245    
      8300   3360.7442      37322.877      26009.003      48758.097      3.6601399     -54380.673    
      8400   3168.0151      3170.1649     -4831.2901     -1250.219       3.5290334     -54394.251    
      8500   2893.1941      15211.512      8489.0876     -3521.6446      3.5876391     -54348.07     
      8600   3031.313      -24283.276     -33194.365     -833.90591      3.5248214     -54493.463    
      8700   2745.7749      18506.46      -2021.3339      21130.451      3.5678654     -54363.219    
      8800   2961.1526      9464.6249     -3198.6492     -23780.697      3.5800353     -54448.331    
      8900   2847.2071     -13610.272     -13622.29       4447.7475      3.54043       -54316.387    
      9000   2986.1858     -19753.209     -7087.526      -43484.618      3.4814155     -54278.044    
      9100   2894.0021     -7549.7343      3292.4475      5970.3308      3.5819664     -54167.84     
      9200   3136.2108      14930.206      41116.369      11950.918      3.6485742     -54286.19     
      9300   2953.1979     -16764.227      23519.976      5108.4248      3.5674532     -54205.009    
      9400   3289.4972      32308.954     -2116.5399      10058.271      3.7129183     -54389.354    
      9500   3199.8706     -26448.728     -24690.934      3962.0041      3.6331695     -54351.601    
      9600   3120.503      -28161.143      14488.253      21763.966      3.5945191     -54360.802    
      9700   3050.0104      8515.9621     -11208.957      18890.993      3.5935528     -54437.673    
      9800   2921.7138      10701.71      -1971.161       2149.521       3.604187      -54475.663    
      9900   2876.8531     -7315.3506      11948.431      10618.404      3.6695698     -54486.809    
     10000   3141.7745     -6539.7046      35605.081      26991.214      3.7153395     -54615.959    
     10100   2944.0977      27532.147      53577.321      20426.241      3.7491684     -54492.208    
     10200   2948.3126      1730.446       7458.161       29071.701      3.6611888     -54476.077    
     10300   3149.5079     -9108.7665      40777.947      12268.503      3.6414527     -54535.075    
     10400   3049.1437      9514.8004      3873.6435     -8580.8461      3.6227979     -54401.347    
     10500   2969.9916     -860.05107      2126.9681      19531.071      3.58913       -54282.579    
     10600   3319.7021     -38021.694      236.10048     -5132.1931      3.6007476     -54388.052    
     10700   2941.9426     -22938.053     -14773.539      10047.852      3.4553394     -54128.58     
     10800   3435.5471      27025.089      19954.568     -442.49266      3.6288161     -54393.226    
     10900   2943.1019      48859.42       19573.711      53476.897      3.6004755     -54131.624    
     11000   3056.8511      31116.107      31220.839      21689.655      3.5555322     -54212.006    
     11100   3247.2072      28595.054      18918.979      15390.985      3.5400457     -54340.739    
     11200   3152.1849     -23544.249     -29853.933      8269.513       3.4780092     -54314.294    
     11300   2981.089      -25455.689     -27786.136     -16618.039      3.4107955     -54276.718    
     11400   2828.6632      7742.4219     -12670.85      -24576.794      3.4493144     -54241.626    
     11500   2925.3966      6583.829       47936.823      17425.175      3.5406418     -54303.737    
     11600   2779.4123      9912.2909     -18952.76       9214.6443      3.4777284     -54176.284    
     11700   2981.0687      5074.2842     -26351.229      19165.076      3.5117484     -54143.758    
     11800   3199.7011     -5675.8462     -27165.642      7992.6741      3.448035      -54143.061    
     11900   3037.5596      42308.61      -9061.9756     -19726.636      3.4708742     -54016.253    
     12000   3306.6926      22755.038     -17617.53      -23403.871      3.4323937     -54190.657    
     12100   3142.2728      5618.1119      9093.4363     -13833.869      3.4972252     -54181.646    
     12200   3122.8988     -20665.745      5351.3108     -8817.113       3.5173553     -54267.233    
     12300   2861.7935      10575.451     -16249.936     -21272.084      3.4235345     -54207.265    
     12400   2762.6475     -15424.771      403.77735     -17602.734      3.447694      -54199.328    
     12500   2789.3372     -29533.442     -18187.465     -18564.251      3.4488075     -54219.864    
     12600   2963.5958     -16300.584      14455.506      20360.643      3.4807901     -54278.761    
     12700   2846.8673      1307.2263      27682.831      11337.783      3.435907      -54153.163    
     12800   2756.1074     -3989.2466     -1541.1204      15392.355      3.4255225     -54041.187    
     12900   3174.1588     -19015.561     -7899.6061     -18148.386      3.4337323     -54218.172    
     13000   3075.0793     -15309.525     -37162.356     -18482.121      3.3064394     -54151.573    
     13100   2999.2423     -9561.8584     -12912.528     -24187.023      3.4200398     -54145.344    
     13200   3053.8449      13536.385     -4053.2945      3474.926       3.4877643     -54208.583    
     13300   2838.4327     -6847.5214      8450.5121     -13238.372      3.3861905     -54135.961    
     13400   3009.7053     -19916.762     -7030.3174     -31264.077      3.4745017     -54257.463    
     13500   2938.9636     -13394.855      4163.4125     -75178.18       3.3557968     -54214.137    
     13600   2802.4936     -8280.3468      36452.04       39.244216      3.4495105     -54136.091    
     13700   2886.6188      11040.535      20809.379      13775.882      3.4700366     -54153.852    
     13800   3037.7834      43430.219      29047.507      11167.111      3.5368255     -54225.076    
     13900   2948.445      -16153.923      9733.7732      18396.706      3.4335013     -54184.434    
     14000   3085.6619     -10695.178      34949.38      -7651.5093      3.4575172     -54268.057    
     14100   3077.1668     -1890.6493      62567.325      8027.3212      3.4827187     -54259.349    
     14200   3202.5558      7346.9866      41071.115      7906.1712      3.3779281     -54294.913    
     14300   2976.1989     -5305.7799      34658.888      6682.6918      3.3847372     -54112.927    
     14400   3182.2061      24595.687      3659.9315     -44496.167      3.3617794     -54127.755    
     14500   3241.2434      29185.03       64331.48       18521.958      3.4322395     -54035.761    
     14600   3224.2099      44.959478      55674.526      1419.5894      3.3663529     -53971.186    
     14700   3198.4525      19965.949     -2123.1795     -26127.661      3.2515602     -53998.853    
     14800   3195.3442      46966.997     -12523.88      -3098.2925      3.4433742     -54104.603    
     14900   2864.824       3790.7194      10533.472     -27150.645      3.3901957     -54079.722    
     15000   3121.6885     -8748.5362      12.777348     -2232.9654      3.376896      -54299.813    
     15100   3056.1827      1221.9961     -13653.171     -15812.224      3.4608308     -54286.686    
     15200   2829.9264     -36139.177      5695.1099     -21136.151      3.4127473     -54146.137    
     15300   3000.2285      12797.114     -3906.9277     -27123.103      3.3955336     -54193.94     
     15400   2852.5313     -13191.801     -13755.865      4759.0162      3.5171721     -54099.986    
     15500   2923.311      -4574.0815     -27564.949     -12604.941      3.315487      -54124.007    
     15600   3173.041       18517.463      27539.435     -18754.854      3.4084339     -54237.788    
     15700   2894.0001     -37832.577     -5266.0204     -16292.283      3.2542101     -54059.473    
     15800   3024.137      -15377.338      12556.832      5066.8086      3.330122      -54110.451    
     15900   2913.6936      14035.339     -27949.441     -13055.171      3.2352734     -54021.608    
     16000   3231.7828      15607.646     -1354.0303     -1738.5081      3.2606013     -54169.032    
     16100   2895.2661     -2494.1742      6042.3257     -17887.123      3.26063       -53991.13     
     16200   3264.4096      5388.7189      16169.87      -12980.937      3.2707869     -54199.592    
     16300   2976.0417      16301.886      28222.741      16696.057      3.3510641     -54064.009    
     16400   3029.8938      30243.92       28609.32       23429.436      3.393855      -54142.449    
     16500   2997.1399      18344.146     -38180.322     -12071.039      3.3493131     -54198.962    
     16600   2996.3228      1437.1857     -10946.604     -7145.9996      3.3179517     -54275.751    
     16700   3201.8648      8481.9306      10571.381      30968.218      3.5640462     -54472.889    
     16800   2551.5345     -10668.348      10148.865     -24425.913      3.3287916     -54173.71     
     16900   2722.9272      24954.559     -8225.2569     -2761.1376      3.3946552     -54263.008    
     17000   2861.8451     -8405.2461     -11008.255      6525.8474      3.4162279     -54270.037    
     17100   2831.0551      9517.2477      8594.981      -11881.369      3.434383      -54073.758    
     17200   2982.5853      10831.602     -8261.4637     -45827.317      3.3000365     -54070.076    
     17300   2981.2832     -20530.415     -16000.596     -11345.537      3.3691932     -54060.215    
     17400   3000.977      -29478.531     -24024.566     -14806.341      3.4516551     -54077.188    
     17500   2683.9197      14834.632     -15506.931     -14656.703      3.5192351     -53959.083    
     17600   2941.6089     -28018.061      29390.003     -29892.088      3.4405632     -54148.951    
     17700   3068.2953     -7766.8087     -10135.238     -34541.731      3.4212932     -54248.376    
     17800   2929.9647     -14110.384     -3023.7026     -9253.4742      3.4146042     -54208.143    
     17900   3208.6475     -15368.435      18657.693      25052.834      3.5597626     -54409.936    
     18000   2844.3465      18026.334     -3049.8945      7265.0771      3.5491085     -54270.521    
     18100   2944.8139      3837.7553     -11131.092     -3544.568       3.5615137     -54417.749    
     18200   2943.1139      23330.962     -16462.298      13454.493      3.5787761     -54486.992    
     18300   2662.6135      4819.4957      18098.684      8793.9605      3.4230652     -54367.719    
     18400   2809.0058     -28211.798     -5712.1698     -3121.9222      3.3796635     -54427.105    
     18500   3131.7667     -5300.2783      15890.608     -24585.481      3.4575886     -54447.649    
     18600   2774.8085      32919.757      5183.1343      6160.8538      3.4312295     -54116.697    
     18700   3185.9237      1557.809       11281.147     -6489.5758      3.4773489     -54275.681    
     18800   2889.6577      25168.341      49487.062      15144.386      3.4742756     -54080.905    
     18900   2744.8553      20128.028      49289.38       326.39412      3.5257656     -53990.474    
     19000   2902.4365      38987.248     -5665.8385      11115.608      3.4875137     -54051.431    
     19100   3272.6365      18946.675     -875.8981      -1057.1369      3.4367186     -54203.996    
     19200   3005.1992     -29572.075     -9897.598      -42848.986      3.363649      -53995.104    
     19300   3238.6842      4489.3602     -4397.1804     -24479.787      3.3875969     -54053.27     
     19400   3055.0384      26128.274      9953.9919      14508.992      3.4191171     -53878.575    
     19500   3219.7642      3837.7322     -19227.616     -12625.218      3.2244729     -53939.694    
     19600   3087.7824     -1010.1414     -17644.381     -2443.9407      3.2791004     -53947.675    
     19700   2937.7684     -6331.6913      1425.4719      15574.061      3.2719856     -54020.076    
     19800   2711.7956     -5217.6375     -4787.6909      21524.449      3.2065374     -53970.759    
     19900   2764.5164      16970.257     -15711.827      8409.7121      3.1977464     -54005.824    
     20000   3221.1568      2665.17       -42543.128     -18407.235      3.1993377     -54224.067    
     20100   3036.137       35381.888      10398.88      -3321.0166      3.3808893     -54078.813    
     20200   3061.3631      22548.131     -4475.6834      21073.187      3.2115609     -54035.069    
     20300   3211.3514      8841.721       11128.3       -2153.3204      3.2648121     -54056.34     
     20400   3041.9659     -27176.702      842.8182       5658.4326      3.2177477     -53922.552    
     20500   3165.2367     -13550.927     -27698.276     -2323.828       3.2929998     -53961.154    
     20600   3301.8433      2138.3549     -23085.699     -20613.486      3.3381421     -54051.193    
     20700   3274.7849     -5736.9179     -7275.4226      14875.035      3.4148056     -54163.189    
     20800   3030.7318     -10389.509     -20570.051     -16713.909      3.424494      -54182.22     
     20900   2999.0101      11296.829      24633.743      13553.411      3.4350954     -54254.046    
     21000   2984.237      -3783.5853      11921.414      22952.301      3.4757302     -54282.913    
     21100   2898.6599      5762.363      -4883.901      -14591.145      3.3963115     -54263.858    
     21200   3132.0913     -11452.12       12882.699      20677.397      3.4222968     -54361.927    
     21300   2975.4325     -11296.547      34303.647      22879.17       3.3744462     -54233.448    
     21400   2944.9591     -27596.95      -117.80309      13048.991      3.4236497     -54119.367    
     21500   3321.9781     -3855.6643      18064.102     -19305.956      3.4458425     -54224.614    
     21600   3171.8072     -2443.4707      22217.224      29657.432      3.5003571     -54119.622    
     21700   2970.5599     -1083.6944      24868.799     -2577.4827      3.513564      -54072.838    
     21800   2862.886       1789.6751      14829.82      -6925.0905      3.5136704     -54130.383    
     21900   2983.1944     -3710.0527     -2064.2009     -2031.5642      3.4666113     -54273.728    
     22000   3035.3096     -2046.5008      16297.338      13408.278      3.4928368     -54407.507    
     22100   2750.2154     -24443.806      24737.035      40906.38       3.5811444     -54397.732    
     22200   2833.0652      24090.17      -6564.5231      34575.403      3.6629948     -54587.2      
     22300   2742.8023     -5594.1243      18674.241      36628.183      3.5732219     -54554.606    
     22400   2791.6351     -12169.087     -5733.2225      17957.846      3.4497514     -54535.133    
     22500   2858.9688      26830.41       7659.4908      18265.602      3.4140374     -54480.004    
     22600   2908.2471      48483.531      6719.6099      7936.518       3.4330311     -54407.203    
     22700   3074.5724      3925.5899      12286.402     -33004.805      3.3805302     -54419.212    
     22800   2899.1055      18466.964     -34675.604     -18000.339      3.3524366     -54248.285    
     22900   3033.5426      49161.808      13182.301      3748.4701      3.4659888     -54253.254    
     23000   2917.9637     -3733.8888     -3324.1596     -12408.45       3.3554668     -54149.986    
     23100   3018.1586      7977.3329     -11020.101      6643.0723      3.4267235     -54105.699    
     23200   2760.1641     -4033.1573     -1352.2272      29613.943      3.3937521     -53893.509    
     23300   2996.5195     -22874.54       14179.419     -7875.1592      3.3750178     -53951.145    
     23400   2976.2069     -15592.785     -12048.095     -24371.477      3.3445174     -53877.527    
     23500   3131.1666     -7339.2881     -5505.3203     -6767.1729      3.3874969     -53919.158    
     23600   3196.5013     -1991.9294     -26776.528     -21456.076      3.2510636     -53928.061    
     23700   3252.4562     -4343.4473      7710.5552      29006.889      3.4032413     -54042.728    
     23800   3211.2055      37475.02       17479.232     -10228.119      3.3553506     -54194.439    
     23900   2904.5989      7037.0291      3934.9801      1881.7822      3.3696747     -54148.959    
     24000   2808.6268      25049.224      11286.975      37437.907      3.5517269     -54157.699    
     24100   3059.6764      17813.859     -25865.368      23306.977      3.5823598     -54336.305    
     24200   2905.1683     -14071.766     -3728.5342     -29251.382      3.5468544     -54288.298    
     24300   2731.42       -17035.161     -30703.18      -6987.2397      3.5467492     -54196.377    
     24400   2917.9517      7085.2821     -11157.681      2575.1591      3.5740466     -54256.705    
     24500   2846.5195      9686.9515     -21315.004     -12862.952      3.423367      -54121.746    
     24600   3087.3191     -26699.43      -19336.47       16866.918      3.3602017     -54154.021    
     24700   3002.5994      5188.0255      4499.56        5390.555       3.4786775     -54016.566    
     24800   3210.6131      14290.675      16287.491     -19342.908      3.3602321     -54107.475    
     24900   3110.347      -10101.458      12673.428     -12482.244      3.3594221     -54084.127    
     25000   3211.8655     -13241.181      7184.8942      42554.802      3.4817923     -54209.271    
     25100   2843.0051     -45756.044     -8848.402      -2013.9959      3.3776305     -54069.956    
     25200   2706.2413     -54657.748     -41859.936     -37605.884      3.3555345     -54022.015    
     25300   2987.4189     -68750.042     -45443.617     -5616.211       3.5001715     -54212.881    
     25400   3192.6595     -59002.209      3426.3765     -8911.5907      3.4717265     -54353.913    
     25500   2988.4816     -32375.912      5819.4268     -8365.2345      3.5115191     -54283.701    
     25600   2815.9281     -8704.5887     -27622.673      7815.6919      3.4937735     -54226.246    
     25700   2917.1222     -2087.6171      553.00536     -28664.778      3.4335341     -54292.788    
     25800   2852.8397      19565.962     -10066.541     -5796.0353      3.5275913     -54270.193    
     25900   3016.2953     -20923.564     -40811.602      19058.801      3.5467695     -54399.055    
     26000   2944.3188     -63.678911     -27550.44      -7036.8819      3.5584312     -54430.544    
     26100   2731.2252      47116.025     -6924.4432      19034.492      3.6124428     -54358.391    
     26200   2671.1328      44424.237      41335.939      26566.219      3.5565389     -54315.811    
     26300   2778.0615      3640.9806      25021.86       26825.168      3.4922695     -54328.672    
     26400   2777.4406      60079.008      45912.891      24323.738      3.5651072     -54240.849    
     26500   2908.1892      5326.9856      13298.341      33874.159      3.5411309     -54200.777    
     26600   3103.4968      2543.0865     -27326.777     -31672.259      3.4578032     -54227.372    
     26700   3051.189       3421.443      -8061.9346     -21411.52       3.4367185     -54156.654    
     26800   2750.9398     -49220.801     -30959.128     -8805.0893      3.2580982     -53964.897    
     26900   2955.938      -6816.964       519.96475      25682.999      3.3496664     -54036.59     
     27000   3013.1722      72378.693      30049.88       61502.282      3.3666149     -53984.456    
     27100   3232.926       40304.023      27328.01       53144.557      3.3712553     -54006.925    
     27200   3006.4501      29713.045     -13654.939     -12112.385      3.2186774     -53876.701    
     27300   3268.593      -29632.385     -27904.544      7742.1482      3.2164279     -53977.259    
     27400   3023.0325     -15463.31      -9205.6626      2855.8035      3.1930309     -53810.744    
     27500   3050.5436      10562         -35034.312      25515.497      3.2018038     -53834.046    
     27600   3298.5565      18273.957      18525.674      10692.716      3.3123521     -54066.925    
     27700   3061.585      -20174.206     -2506.8815      37035.783      3.3075449     -54067.064    
     27800   2929.1094      6419.8786     -13724         -10878.767      3.2110847     -54094.303    
     27900   2724.3573     -11802.824     -41210.13       499.34332      3.1984862     -54010.959    
     28000   2967.1268      26334.9        2947.295       6357.9594      3.3229058     -54150.706    
     28100   2993.3851     -22980.496      11031.985     -5556.3094      3.244905      -54163.61     
     28200   2980.0966      10333.065      12110.704      5604.5607      3.2882583     -54131.104    
     28300   3019.1639      2087.4079      9327.5655     -13421.377      3.3149546     -54087.524    
     28400   3295.8766     -34275.837      12265.785     -7740.9748      3.3033725     -54162.72     
     28500   3250.2161     -24161.121      12712.475     -3481.549       3.3275679     -54081.713    
     28600   3449.5382      3249.9128      10963.701     -23281.243      3.2823689     -54166.512    
     28700   3452.1839     -9874.3995      3113.0107     -8865.5128      3.3533726     -54230.224    
     28800   2916.1895      15385.355      17957.649      50739.373      3.3790226     -54084.345    
     28900   3070.1244     -9213.7996     -1118.5492     -10181.619      3.3886309     -54264.911    
     29000   2974.2661     -20785.174     -12521.887     -19726.374      3.4152874     -54269.856    
     29100   3123.8194     -28807.366      5963.0341      2264.2097      3.3950167     -54406.774    
     29200   2812.2112      743.63929      19593.578     -14259.359      3.3396073     -54271.764    
     29300   2607.939      -25284.94      -17200.153      48167.341      3.2884084     -54151.324    
     29400   3112.1221      19451.066      28395.516      1782.7252      3.4154521     -54368.087    
     29500   2985.4169      9632.9177      11787.166     -21864.686      3.4125464     -54209.706    
     29600   2986.1708     -41153.367     -35103.497      17731.548      3.3329867     -54103.702    
     29700   3051.5147      7346.3202     -15601.131     -35857.111      3.357153      -53992.679    
     29800   2973.2217     -1909.8139     -31521.391     -1279.0616      3.3115527     -53832.506    
     29900   3179.6624     -7325.6003     -17175.999     -23803.973      3.3622964     -53920.092    
     30000   3062.9369     -14781.262      29783.498      5431.8247      3.3991504     -53885.156    
     30100   3361.245       28003.453      40163.155      44033.214      3.4753624     -54108.797    
     30200   3250.6571      30247.081      33181.081      25149.99       3.4899004     -54129.264    
     30300   3198.961      -7498.7636      7691.8519     -6441.8219      3.4378367     -54209.108    
     30400   2974.6601      1876.5292      45592.148      23246.056      3.5214949     -54170.59     
     30500   3106.9317     -44753.035     -1214.9923      8524.2814      3.4175956     -54291.896    
     30600   3067.5624     -3982.9773     -18062.152      905.62351      3.4277308     -54295.675    
     30700   3148.1796     -10838.933      38952.112      16418.957      3.5408648     -54345.645    
     30800   2901.316      -19733.526     -17653.359     -15017.585      3.4036884     -54241.735    
     30900   3055.3925      4997.7008      5762.4115      15496.304      3.5290744     -54385.821    
     31000   2954.6057      1426.2268      23329.153      12429.471      3.5078387     -54423.463    
     31100   2897.242      -8844.9558      34327.029     -5198.2594      3.5292676     -54495.279    
     31200   2786.4482     -936.87447      11130.715      31026.649      3.6131638     -54469.387    
     31300   2815.7129      24640.519      10426.866     -4614.2913      3.5600442     -54461.841    
     31400   3011.067      -4443.1675     -18559.665      23250.119      3.5000399     -54486.279    
     31500   2786.3181      25338.333     -16439.213      35081.209      3.5661354     -54207.752    
     31600   2906.069       149.92068      7221.9101      9169.292       3.5454269     -54168.051    
     31700   3122.5465     -42944.972      7326.2625      17165.902      3.4487736     -54246.763    
     31800   3107.3211     -23431.046     -35654.762     -28560.264      3.3823275     -54233.684    
     31900   3020.5041     -10644.217     -43817.46      -14444.643      3.4244618     -54197.611    
     32000   3213.6004      11178.172     -11227.801      16136.179      3.5454447     -54344.633    
     32100   2958.2614      47326.826      48966.73       41574.264      3.5785307     -54272.958    
     32200   2903.1172      919.41722      17745.731     -7939.028       3.535155      -54295.127    
     32300   3015.323      -23746.058      18094.406     -6523.0619      3.4845494     -54367.563    
     32400   2914.6216      29039.048     -2235.5001     -4375.9184      3.4547442     -54334.909    
     32500   2946.8696     -6154.9144     -9409.5117     -23133.001      3.3961812     -54391.925    
     32600   2917.2239     -45650.291     -38773.809     -25418.292      3.4091841     -54411.243    
     32700   2826.6647     -10835.879     -27533.802     -13749.146      3.4539879     -54391.654    
     32800   2654.7425     -12291.71      -27364.595     -1794.3731      3.4755338     -54296.232    
     32900   2832.9485     -21427.705     -21709.842     -15585.432      3.4450697     -54344.544    
     33000   2882.5247     -41682.731     -9747.313       20351.317      3.3942475     -54261.302    
     33100   2776.0986     -65441.619      6015.9249     -28030.414      3.235968      -54088.687    
     33200   2903.3796     -726.16548     -19060.293      4602.6092      3.4380179     -54043.429    
     33300   2966.1346      1533.0358      308.0237       24580.305      3.4324606     -54023.932    
     33400   3055.3335     -10567.695      10528.032     -19401.754      3.3072609     -54058.042    
     33500   3017.1028     -8732.6077      9328.4496      20109.121      3.3075616     -54057.442    
     33600   3099.1822      35952.844      18236.665      31059.495      3.3027441     -54142.908    
     33700   2955.0955      2578.0788      24277.6       -3122.7136      3.2856861     -54125.592    
     33800   3025.3908      6317.087       22413.509     -8641.0209      3.4064801     -54238.245    
     33900   2842.4307     -17538.792     -15088.071      31064.732      3.3831011     -54256.298    
     34000   2601.3309      3385.8045     -19435.22       10572.514      3.306846      -54224.74     
     34100   2741.2363     -33068.524     -35096.083      11596.518      3.3272479     -54322.576    
     34200   3071.7448     -16900.63      -12447.872     -6646.5762      3.4375148     -54479.845    
     34300   2743.643       43530.483      10271.401      38539.58       3.4882688     -54263.815    
     34400   2838.4513      12858.277      25709.059      33753.95       3.4593702     -54243.058    
     34500   3024.5276      1266.7288     -36696.627     -20029.345      3.4905121     -54304.995    
     34600   2732.6314     -44353.964     -46455.17      -51383.557      3.3629152     -54109.281    
     34700   3054.714       22786.406     -27285.423      8973.8685      3.518169      -54256.493    
     34800   3159.4128      44484.872      64150.91      -12859.107      3.528289      -54313.275    
     34900   3130.6829      17447.268      19190.121      1370.4362      3.577186      -54295.829    
     35000   2937.9287      26211.594      2429.4507      41577.283      3.5743538     -54201.662    
     35100   3231.869       31363.672     -4259.4045      50382.562      3.5199855     -54364.677    
     35200   2908.6227      19847.925     -3494.5475      3225.9184      3.5026622     -54205.512    
     35300   2987.4191      8854.1992      1104.4445     -3136.6559      3.5322973     -54253.761    
     35400   2843.1728     -29284.503     -29006.892      734.80864      3.4253623     -54171.854    
     35500   3137.1083     -15791.512     -39426.96      -28098.31       3.5049343     -54315.566    
     35600   3046.2492     -24547.24      -27659.972     -22677.885      3.4401881     -54253.856    
     35700   3146.4945      31890.761      3143.7789      1279.9945      3.5949234     -54307.197    
     35800   3033.637       34967.714     -27574.941     -5087.112       3.5838243     -54221.529    
     35900   3049.0741      17767.323      378.83469     -7904.8511      3.5077237     -54181.942    
     36000   3110.2231      24737.839     -16257.111     -12157.18       3.5777796     -54150.59     
     36100   3230.0842      36159.484      26211.279      5563.3514      3.564856      -54171.922    
     36200   2836.3113     -18281.371      34963.333      28849.584      3.5963041     -53970.877    
     36300   3035.0164      5786.3893     -26072.325     -1962.5561      3.458005      -54145.778    
     36400   2879.0955     -17268.315      5815.6827      36521.778      3.4487821     -54172.83     
     36500   2648.0283      2584.1571     -37834.761     -12118.597      3.4249358     -54136.961    
     36600   2785.4769     -20640.337     -1561.9056     -32253.823      3.4444565     -54253.077    
     36700   2686.1313      12805.904     -8432.3001     -4251.8593      3.5091616     -54185.862    
     36800   2720.4505     -21368.129     -21492.816     -12449.273      3.4710739     -54149.028    
     36900   3001.9006     -34885.601      7315.334      -12001.216      3.477182      -54190.118    
     37000   3238.3453      26657.763     -25439.201      10119.086      3.5667113     -54193.771    
     37100   3154.4343     -5761.458      -33148.463      17268.397      3.4524528     -54042.328    
     37200   3163.9054      17624.848      15523.341     -25085.394      3.4774986     -53967.28     
     37300   3179.0651     -34229.558     -9932.3227     -16029.382      3.3615496     -53951.665    
     37400   3118.3794     -1781.4768      28300.147     -13083.174      3.4950858     -53956.304    
     37500   2988.2865     -31159.203      9740.1966     -34126.167      3.4349739     -53971.214    
     37600   2972.1424      16136.04       30030.893     -6263.5057      3.5381033     -54058.107    
     37700   3185.4817      19337.113      13494.849     -7770.139       3.5530068     -54279.149    
     37800   2890.1468     -30902.522      22844.654      13090.754      3.5025119     -54216.041    
     37900   2863.2992      24595.551      12819.943      27754.933      3.5494029     -54270.609    
     38000   2688.9347     -41509.078     -1070.6683      18072.01       3.4489342     -54202.173    
     38100   3112.7095      16859.775     -5376.9316     -43628.253      3.5881101     -54406.301    
     38200   2917.9169      21322.273     -8138.5036     -20942.046      3.5389081     -54266.464    
     38300   2956.858       12712.512     -5479.514      -25962.398      3.4386725     -54234.974    
     38400   3223.35       -1332.2902     -7134.9622      12450.861      3.527714      -54282.297    
     38500   2956.9814     -20687.418     -14430.916     -11803.053      3.4500281     -54015.181    
     38600   3192.5215     -42815.469     -28665.218     -13400.405      3.4056114     -54072.722    
     38700   3483.7904     -39715.575      16654.929      11445.938      3.5027446     -54234.522    
     38800   3313.5846     -27132.234     -30872.961     -42213.186      3.3665052     -54222.168    
     38900   3170.2698     -17876.464     -20102.023     -24889.819      3.4699609     -54290.636    
     39000   2847.9331      1317.8157      10540.67      -14349.448      3.4744418     -54196.581    
     39100   2965.3966      19096.386     -29796.088      3992.5976      3.4731066     -54292.985    
     39200   2974.4527      13671.323     -11865.596     -5407.9063      3.5097602     -54324.624    
     39300   2963.8709      27422.666      28654.741      10399.158      3.5853458     -54310.431    
     39400   3162.4412     -14901.793     -26924.629     -23678.842      3.4043865     -54409.761    
     39500   2833.5045     -10864.129     -13779.949     -12628.914      3.4090153     -54192.944    
     39600   2866.6438     -5657.5798     -5881.6721     -347.56775      3.3945626     -54122.089    
     39700   3456.8709      2029.7862      21133.561      34273.193      3.4325994     -54336.271    
     39800   3216.6896      18427.136     -733.29441      14121.81       3.398887      -54167.581    
     39900   2996.5535     -21242.772     -7928.5212      9593.6108      3.3502533     -54057.702    
     40000   3063.0056     -5109.4053     -11413.838     -12351.233      3.3513685     -54135.593    
     40100   2999.3133     -26681.104     -13691.012      38480.312      3.4068053     -54193.317    
     40200   2927.3559      29285.944      2103.7406      16623.473      3.4313561     -54252.477    
     40300   3138.5405     -14798.873     -9205.2004     -11026.47       3.5045334     -54425.506    
     40400   2565.2312     -18046.243      20786.558      13617.333      3.445501      -54121.271    
     40500   2934.7467      52113.014     -18394.145      28324.616      3.4924367     -54300.676    
     40600   3093.673      -5647.841      -18900.285      13380.956      3.4420002     -54349.772    
     40700   2740.7198     -15132.946     -35898.733     -42305.936      3.3706134     -54104.884    
     40800   3173.7399     -18140.428     -27824.683      13802.687      3.3599015     -54275.633    
     40900   2867.6302     -37882.687      7331.5367      14903.359      3.3622796     -54035.393    
     41000   2771.2406      2398.7354      24536.622      30491.317      3.4585795     -53912.947    
     41100   3194.9095      18939.07      -2370.5777      3381.1778      3.4117685     -54091.82     
     41200   3170.6256      7571.2842      6927.3933     -9459.9364      3.4889152     -54084.811    
     41300   3075.1134     -2370.7489      21935.17      -9716.0868      3.5301647     -54090.664    
     41400   3065.1455     -5512.7222      17495.702     -13784.983      3.4076003     -54229.625    
     41500   2776.4292     -5328.1784      6343.6496      32264.548      3.4633503     -54225.738    
     41600   2926.6178     -347.74013      15265.729      16105.343      3.5107104     -54344.01     
     41700   2761.4888      19250.108     -478.38385      27861.757      3.5736477     -54269.933    
     41800   3138.0146      1564.7789     -5622.3923     -24273.533      3.4398091     -54471.631    
     41900   2680.5873     -20009.69      -7817.3746      8771.3556      3.4076997     -54159.996    
     42000   3300.9237     -9137.8677     -217.7209      -24721.535      3.4291808     -54403.534    
     42100   3063.2478     -22174.48       8384.6054     -37271.717      3.3181188     -54187.231    
     42200   3284.2585     -4534.3042      12497.082      23142.568      3.3506951     -54245.605    
     42300   3225.2973      38722.422      20287.749      23668.947      3.4002236     -54208.773    
     42400   3251.3843      3028.2915      26953.614      34167.373      3.4696727     -54249.73     
     42500   2942.8426      5020.6395      31991.461      34092.47       3.529689      -54104.174    
     42600   2876.1531     -19306.778      11287.679     -3998.1429      3.4021309     -54085.607    
     42700   3309.9408      7093.7647      7340.8889     -3527.2523      3.5479791     -54347.472    
     42800   3214.997       2005.1511     -44306.092      31470.529      3.4663926     -54354.862    
     42900   3137.0264      9580.2156     -23856.799     -33104.6        3.4401562     -54385.632    
     43000   2923.9124      21106.507     -9298.0094      6854.916       3.4923996     -54348.337    
     43100   2913.3453     -8839.249       17739.745      30030.941      3.5312739     -54387.522    
     43200   2976.4878      13972.065     -33586.219     -23301.926      3.5608579     -54448.228    
     43300   2986.7485     -18895.342     -12231.429      16683.037      3.602644      -54429.552    
     43400   2778.9544     -31672.283     -9716.9482      16306.262      3.4878458     -54293.742    
     43500   3080.1427     -8706.9259     -27422.652      5678.6001      3.4622066     -54431.963    
     43600   3052.4539      8933.3341      19214.558     -13624.187      3.4790255     -54394.58     
     43700   2829.6239      16546.253     -32077.889      24221.25       3.3735014     -54235.086    
     43800   2985.7826      8259.6239      7315.4372      22215.52       3.4879253     -54239.546    
     43900   2937.746      -29547.683      7018.3356     -1348.6575      3.4446037     -54150.316    
     44000   2978.8133     -37793.078     -12957.46      -23005.792      3.4525102     -54134.121    
     44100   3115.8387     -7739.574       3337.6623     -252.26447      3.4592367     -54203.187    
     44200   2899.7683      11781.102      38541.928     -236.81723      3.4318888     -54111.143    
     44300   3151.5688     -48633.201     -39274.18      -215.21211      3.3912801     -54297.85     
     44400   2763.646       33915.627      31200.236      24651.452      3.5209887     -54189.308    
     44500   2705.5435      44533.394      25461.142      16882.632      3.4932076     -54214.238    
     44600   3029.3487      4427.7842      7730.5914     -21218.87       3.3937676     -54387.617    
     44700   2925.7465     -1349.8167     -55163.151     -3038.9737      3.4778453     -54263.214    
     44800   2998.7033     -32858.072     -36695.843     -17566.215      3.449597      -54197.931    
     44900   3213.515      -3722.7181     -1980.7368      21316.448      3.4925248     -54214.7      
     45000   3233.834       11548.318      29812.507      22030.363      3.5585687     -54183.35     
     45100   3356.9236      31283.482      17607.021      5379.6126      3.6267485     -54249.568    
     45200   3148.5754      41840.828     -9289.6106      13604.376      3.5013473     -54149.499    
     45300   3190.8745      9203.1938     -12952.265      31737.056      3.6017874     -54212.97     
     45400   3169.322       35313.75      -29759.368      41286.809      3.4584935     -54241.022    
     45500   3005.4173      8866.9859     -3834.2278      24776.126      3.5165911     -54193.147    
     45600   2997.5445      34153.854      11150.815      28677.114      3.5834761     -54218.837    
     45700   3070.8981     -2609.7142      5778.7138      9687.0926      3.5803807     -54282.178    
     45800   2797.2456     -19577.745      9847.9072      557.39958      3.4441323     -54187.443    
     45900   2720.8062     -14298.924     -30174.695     -29298.188      3.4279618     -54225.124    
     46000   2937.6943     -23690.777     -10451.15      -50076.643      3.4841206     -54467.472    
     46100   2824.6022      18055.555     -26040.904     -12794.666      3.5408094     -54505.463    
     46200   2638.6268     -2378.5527     -28812.31      -19169.801      3.5209371     -54482.286    
     46300   2892.9511     -14551.568     -25356.473     -36705.031      3.6234791     -54622.814    
     46400   2826.9747      1118.0902     -20466.487     -17587.814      3.5479877     -54473.168    
     46500   2897.2118      308.90235     -21037.669      32458.485      3.5360756     -54339.749    
     46600   3006.5204      3935.2935      5623.0713      10099.055      3.5629515     -54326.724    
     46700   3083.7192      15750.236      33956.214     -4630.322       3.565528      -54315.22     
     46800   2955.6248     -14835.22       11808.877     -10630.44       3.5141334     -54201.462    
     46900   3012.3946      648.46112     -19503.059      31132.839      3.6418504     -54182.772    
     47000   2962.4083     -14412.171     -70576.745     -20798.877      3.4595773     -54141.558    
     47100   2896.8979      34209.684     -10660.439     -32220.718      3.4985477     -54128.948    
     47200   3063.9238      13373.213     -4433.4611      37997.1        3.6105496     -54274.634    
     47300   3036.3528      33693.655     -14841.556      32719.875      3.5955737     -54368.094    
     47400   2893.2026      33721.838      23345.687      27800.901      3.6340313     -54396.781    
     47500   2950.5855     -6732.2749      34615.102      12359.022      3.5969277     -54486.803    
     47600   2727.4021     -2463.1402     -3997.0187      21657.373      3.5880606     -54377.041    
     47700   3036.5358      24987.578      1574.6337     -1113.8339      3.6063908     -54511.089    
     47800   2944.6648      9300.4309     -17178.977      4180.4438      3.6941166     -54387.789    
     47900   2749.4087      30958.91      -9451.2644      38928.127      3.6202797     -54188.825    
     48000   2981.1974      13556.568     -2780.8315     -6486.9693      3.5205222     -54227.549    
     48100   3136.5833      6225.8298      42719.967      32241.472      3.5928053     -54278.509    
     48200   2916.4174      21545.352     -2250.7792      3924.6127      3.5480444     -54140.373    
     48300   2894.5436      33821.791     -46496.399     -7885.2885      3.566815      -54132.888    
     48400   2913.4254      7566.4588     -12556.535      3110.1608      3.579074      -54147.496    
     48500   3149.629      -8006.7468     -3696.6113     -2219.8885      3.4599352     -54261.318    
     48600   3057.1118     -4488.9917     -15408.992     -856.80126      3.4192444     -54190.133    
     48700   2902.6604     -10659.49      -30168.652     -41995.903      3.4148674     -54079.478    
     48800   3242.4455      1938.5073     -3806.7027      390.52359      3.419484      -54254.842    
     48900   2919.8805     -56251.841      17750.641      20381.869      3.4300355     -54077.164    
     49000   3015.8701     -32752.921     -19244.412     -45529.399      3.4349747     -54170.319    
     49100   2946.4273     -7498.6475     -8561.3481     -31072.42       3.4993829     -54194.19     
     49200   2800.581       12267.872     -10507.548     -7081.4789      3.5162325     -54201.757    
     49300   2846.6805      7961.6549     -11126.079      12273.189      3.5347006     -54297.91     
     49400   2846.3075     -16431.641      17384.656     -30196.565      3.4725529     -54354.226    
     49500   2730.5418      3940.2761     -16250.164     -22124.268      3.4272        -54326.073    
     49600   2735.5059      3042.2963     -24171.212      11089.279      3.4169505     -54275.298    
     49700   2941.1932     -13048.016     -3686.8416     -1033.1064      3.4721111     -54224.472    
     49800   3266.8059      1555.4007      4929.6644     -38873.236      3.5067903     -54301.56     
     49900   3287.4375     -2532.1227      859.24128      17154.919      3.4485163     -54272.593    
     50000   3038.4987     -9193.0507     -9664.8734     -18205.864      3.3970608     -54152.398    
     50100   3063.7264     -18571.105     -35969.804     -26726.898      3.3550307     -54202.885    
     50200   3044.7859     -3351.1533      1654.5118     -913.30752      3.3202114     -54241.161    
     50300   2931.178      -43087.765      3372.89       -10836.236      3.3655558     -54242.906    
     50400   2834.9666     -9229.6537     -25030.99      -5470.559       3.3964317     -54234.696    
     50500   2763.3478      20613.323      2512.2518     -8291.4162      3.4220307     -54213.578    
     50600   3028.9446      15392.043     -10858.94       10606.744      3.3510189     -54306.609    
     50700   2755.8899      8531.9528      18681.196      6476.9324      3.3906456     -54021.655    
     50800   2949.3355     -23382.25      -6948.314      -460.00831      3.2663932     -53982.775    
     50900   3042.5228     -8158.849      -32152.038      4707.1494      3.3208281     -53978.39     
     51000   3236.0837     -18378.7        553.38706      1438.524       3.3136518     -54047.615    
     51100   3195.1576      9921.0272      19202.505      296.48116      3.2953568     -54044.354    
     51200   2948.645       5843.7529      7130.6689      26240.656      3.3086633     -53960.533    
     51300   3177.3563     -25649.588     -35492.36      -32158.925      3.2012631     -54152.914    
     51400   2969.1258     -20105.574      2236.9373     -13277.372      3.2379189     -54130.143    
     51500   2899.1626      12469.805      13146.561      65759.801      3.3808405     -54170.313    
     51600   2725.1721     -12103.942      7857.8311      642.07373      3.2939818     -54129.893    
     51700   3011.4109     -9888.2896     -16527.143     -14529.234      3.3274375     -54336.376    
     51800   2759.5453     -6430.6241      4091.4591      6776.6199      3.3270837     -54250.515    
     51900   2867.3937      8870.503      -6008.4629      29495.695      3.282312      -54378.693    
     52000   2811.6017      731.35681      1181.0752      24701.507      3.3708613     -54353.342    
     52100   3001.5378      19189.703      1500.0367      52633.111      3.4938533     -54403.118    
     52200   3086.8034     -11572.207     -7990.4913      47599.887      3.4996765     -54329.713    
     52300   2839.8564     -12792.714     -6764.4885     -23943.387      3.3782385     -54096.927    
     52400   2928.7388     -22101.555     -3665.6886     -18150.393      3.3576556     -54057.294    
     52500   2804.9162     -35574.661     -38289.411     -26861.023      3.2411206     -53925.5      
     52600   3259.3598     -18788.721     -37072.426     -45164.887      3.2540932     -54123        
     52700   3276.7186     -54814.283     -45651.061     -10816.616      3.3566316     -54099.955    
     52800   2956.8682     -3231.6208      6421.2414      20528.131      3.4128728     -53925.689    
     52900   2951.5292     -3854.9788     -16132.935     -3500.1982      3.3324407     -53973.718    
     53000   2935.5313      27361.375     -19705.057      7419.6271      3.4881691     -54066.658    
     53100   2804.9072      22717.83      -16998.358      34740.33       3.4763553     -54168.943    
     53200   2816.3025      4368.208      -10281.557     -4757.3256      3.4881565     -54252.147    
     53300   2932.4238     -16649.84      -22337.469     -24548.566      3.4768942     -54316.752    
     53400   2742.2803     -38502.394     -30440.525     -15785.829      3.4132394     -54174.589    
     53500   2884.1444     -15645.926     -25664.247     -6255.754       3.4090541     -54203.316    
     53600   3091.4029      34332.488     -16239.658      16672.743      3.5227001     -54250.002    
     53700   3240.4216      13543.687     -22810.347      24786.038      3.4993705     -54257.23     
     53800   3217.6774     -22945.999      309.26485     -37360.815      3.3962244     -54200.519    
     53900   2864.4125      8093.776       9133.8065     -14713.812      3.389032      -54007.159    
     54000   3034.3615      5131.4056      30413.665     -28183.306      3.4528061     -54137.271    
     54100   2918.4331      858.40492      3977.6245     -6256.5592      3.4546359     -54146.486    
     54200   2738.589      -26130.169     -29299.931     -18667.316      3.4151652     -54129.279    
     54300   2832.4473     -36139.322     -28137.841     -4200.3388      3.499896      -54223.128    
     54400   3022.2525     -4090.9827     -44624.555      7077.9758      3.5296712     -54332.914    
     54500   2900.019      -42104.162      8344.3697      7827.5936      3.5627939     -54276.757    
     54600   2739.0219      23769.12      -2761.4852      17322.314      3.5337477     -54180.957    
     54700   2993.8408      1687.7595      46763.14      -3207.6554      3.5034749     -54236.252    
     54800   3144.3972      8560.0922      44890.853     -9828.5665      3.453955      -54186.435    
     54900   3041.5597     -19085.842     -8425.7651      10589.425      3.3781888     -54069.758    
     55000   3258.7457     -28488.217     -47813.69      -15419.955      3.3575959     -54193.636    
     55100   2839.966      -9354.7774     -26284.469     -21775.157      3.3113818     -53995.054    
     55200   2893.2375     -35829.302     -6282.5097      11335.671      3.3030546     -54065.961    
     55300   3144.5037     -7144.1355      579.14496      1215.4519      3.3888344     -54287.365    
     55400   2721.4824     -10944.654     -14596.647     -993.40003      3.4148947     -54225.648    
     55500   2853.5442     -17527.479     -35919.337     -35615.736      3.3251772     -54371.822    
     55600   2785.4514      36653.307      4527.177      -23957.444      3.488826      -54335.387    
     55700   2908.1535      16933.151      12755.31      -20249.381      3.4433726     -54374.309    
     55800   2579.7987      14895.728      15283.523      6821.4112      3.4022169     -54126.346    
     55900   3024.0588      24098.951     -1689.5331      18126.863      3.3863034     -54276.854    
     56000   3153.9222      47666.098     -11995.948      7782.8492      3.4318192     -54280.38     
     56100   2791.9491      2404.5535     -5915.3776     -39951.362      3.2880936     -54043.223    
     56200   3262.6699     -37494.57      -38016.488     -42434.696      3.347951      -54271.153    
     56300   2942.8746     -9122.8741     -27057.836     -18182.359      3.3659221     -54079.841    
     56400   3213.2834      9167.3664     -35877.238      21214.459      3.4575832     -54255.705    
     56500   2731.7707      8032.6335     -21008.572     -5006.1291      3.4182207     -54103.176    
     56600   2689.7673      9349.2783     -8973.2368     -23237.595      3.4685731     -54225.936    
     56700   2711.9101     -26282.688     -41390.504     -33700.128      3.380278      -54276.205    
     56800   2875.8267     -24817.514      47059.451     -6611.9697      3.4627542     -54336.648    
     56900   2768.2115      26691.476      9977.1782      1981.9057      3.4139838     -54240.727    
     57000   2840.5769      4718.1535      1714.7589      9700.235       3.3893273     -54232.91     
     57100   2937.5923      29408.538     -2102.113      -16026.895      3.4215439     -54218.193    
     57200   3000.7713      19393.104      9347.6865     -24372.76       3.4907263     -54195.136    
     57300   2900.2389     -982.06748     -6025.3608      6550.6347      3.3687931     -54089.685    
     57400   3258.4369      28597.563      43522.339      11318.855      3.4039973     -54229.682    
     57500   3124.263      -11018.515      9299.5439     -12633.525      3.3355013     -54097.223    
     57600   3404.194       28410.578      33099.235     -3796.9231      3.4007774     -54179.444    
     57700   3171.9076      19263.141      35821.881      39790.252      3.4041116     -54005.786    
     57800   3184.4514      17844.641      59611.362      33012.104      3.3817419     -54011.649    
     57900   3057.4723      16570.804      5675.3358     -4375.2452      3.3727815     -54013.758    
     58000   2984.7438     -20286.525     -1030.2481     -15678.805      3.3916637     -54091.179    
     58100   2732.6157     -33528.403     -14862.971     -10425.815      3.4426659     -54049.516    
     58200   2761.0119     -20161.937     -31949.837     -15190.277      3.3650772     -54123.514    
     58300   3016.3148     -6883.9639     -16700.807     -7202.643       3.4736608     -54269.587    
     58400   2896.5052     -7084.7398     -6294.8519      9205.2965      3.611852      -54171.087    
     58500   2893.944      -11880.306     -2403.5123      40638.193      3.5617197     -54138.246    
     58600   2814.6058     -9866.2271     -24065.187      41054.489      3.4743679     -54048.731    
     58700   3162.2976      17943.769      42899.541      70178.782      3.5569612     -54143.557    
     58800   3625.1628     -2494.8397     -5589.5017      9632.8436      3.4484077     -54282.102    
     58900   3183.6858      8262.4308      3329.6991     -13164.167      3.4675056     -53974.59     
     59000   3384.3015     -38971.893     -14678.235     -9333.3708      3.4865097     -54061.822    
     59100   3033.2205     -4739.448      -6872.0853     -25278.477      3.3636512     -53933.91     
     59200   2937.8797      9780.2617      1388.312       1178.0607      3.4426708     -54037.617    
     59300   3093.7901     -2759.5113     -6965.0811     -35001.918      3.4256379     -54258.548    
     59400   2902.9736     -17133.038      4093.9979     -26255.586      3.3672391     -54200.733    
     59500   3089.4141     -15565.635     -34328.101     -52429.565      3.389542      -54315.143    
     59600   2885.2761      57085.939     -23282.292     -33257.278      3.4556804     -54199.46     
     59700   2834.5674      43098.36       16928.854      73250.101      3.5140215     -54131.352    
     59800   3113.7384      35955.76       43405.474      35814.993      3.5099993     -54180.099    
     59900   3187.8994      21132.234      41163.867      6449.5621      3.4581583     -54132.549    
     60000   3257.147       42492.936      57841.685      24045.284      3.5055881     -54128.878    
     60100   3251.3066      22783.06       24120.419      21103.503      3.3964008     -54133.294    
     60200   3244.071       41095.986      90474.132      17344.158      3.5033359     -54228.873    
     60300   3162.7383      20927.404      7654.668       4254.6117      3.5506624     -54371.419    
     60400   2998.9039     -7252.1585     -27547.561     -29153.959      3.4448319     -54360.354    
     60500   3013.6653     -15660.893      5443.5047     -31765.706      3.3609436     -54389.649    
     60600   2863.455       38347.388     -1413.9143      1918.0022      3.4809061     -54305.76     
     60700   2985.4788      24135.481      2777.938       25213.334      3.5449285     -54336.921    
     60800   2931.2143      7829.5294     -16009.935     -13864.919      3.4585677     -54225.802    
     60900   3071.1931     -16227.433     -20419.415      563.77223      3.460439      -54209.531    
     61000   3177.6871      15717.175      23298.715      26732.207      3.5262068     -54209.625    
     61100   3100.8951     -8920.0167     -6636.4376      31471.771      3.4936434     -54156.063    
     61200   2918.595      -56547.884     -51753.815     -21614.245      3.4042542     -54089.961    
     61300   2914.0134     -18071.845      7410.4123     -6461.6027      3.4509376     -54184.882    
     61400   2762.4348     -6120.7929      23727.226     -28572.39       3.5236351     -54294.27     
     61500   2758.5042      17859.11       3175.1465     -3190.8637      3.4655874     -54362.244    
     61600   2832.1619      2205.8749     -47938.884      6285.9845      3.3805354     -54391.595    
     61700   2953.071       14134.819     -42425.855     -12659.369      3.3405645     -54393.403    
     61800   2803.2542      17132.566     -6484.7406     -17171.44       3.4028227     -54216.059    
     61900   2990.5723      17221.309     -16212.437     -7949.7312      3.3959257     -54237.923    
     62000   3023.0452     -86.528582     -38505.927      38181.963      3.360853      -54200.14     
     62100   2963.4593     -10627.98      -3591.6897     -15185.032      3.3232305     -54148.514    
     62200   3056.95       -1340.8132     -27460.811     -19866.424      3.3125486     -54165.93     
     62300   3000.3084      8395.7232     -46036.392     -9711.4364      3.239472      -54106.989    
     62400   2852.3646     -6535.5181     -23392.593     -12532.034      3.2892343     -53993.424    
     62500   2863.7269      14541.105     -31707.339      8039.1196      3.2696011     -53894.263    
     62600   3317.5051     -19454.453     -7672.2188     -28796.99       3.2792452     -53993.297    
     62700   3173.1309     -8641.0237     -32022.481      10468.033      3.3169083     -53870.532    
     62800   3488.9213     -12938.571      7926.5563      15624.437      3.4161462     -54093.745    
     62900   3230.1799      14470.308     -6236.8503      7409.4345      3.3193156     -54108.923    
     63000   3181.2625      35502.71       19190.915      15746.811      3.4597572     -54177.344    
     63100   3125.2761      33455.95      -8678.4784     -16219.583      3.3594063     -54226.182    
     63200   2904.7408      10097.938     -2554.3802      14031.25       3.3498542     -54142.951    
     63300   2774.9724      25293.251      6217.5841     -1795.4778      3.4305738     -54084.153    
     63400   3037.2069      12488.59      -28027.832     -340.98402      3.4606026     -54223.119    
     63500   2949.8844     -14381.387     -21896.138     -2058.2064      3.3452272     -54152.071    
     63600   3116.9856     -26719.968     -14222.278     -17084.314      3.3661281     -54205.869    
     63700   2950.0642      40389.407      29514.386      19126.989      3.4761599     -54062.631    
     63800   3021.3045     -25741.079      8567.4135      10202.282      3.320803      -54018.856    
     63900   3055.945      -21722.76       23563.227      33313.087      3.3243058     -53934.694    
     64000   2981.6192      6446.824       4831.3263      13219.987      3.3357317     -53851.199    
     64100   3089.0968     -24312.104     -13819.175     -8827.9958      3.3411069     -53940.781    
     64200   3035.6944     -979.39287     -16372.335     -8838.728       3.3067738     -53983.97     
     64300   2931.2972      816.73639     -14801.495     -16570.75       3.2607679     -54065.437    
     64400   2832.6831      1398.1483      2745.6043     -1125.6523      3.3872662     -54131.892    
     64500   2977.3366      9472.9344     -1821.2108     -254.33877      3.4675324     -54244.163    
     64600   3101.7945     -3989.622       1379.8438      27798.104      3.4232996     -54323.808    
     64700   3066.3439      10359.746      19199.626      11921.287      3.5384643     -54305.683    
     64800   3084.2225      8566.2877     -1443.9273     -15165.17       3.4878412     -54335.995    
     64900   2811.4502     -30393.771     -27724.141     -24482.604      3.4507678     -54206.839    
     65000   2886.4336      4199.697       16682.015     -19059.818      3.52206       -54268.259    
     65100   2871.0304      35645.074      41507.29      -18026.276      3.5520252     -54257.661    
     65200   2772.2352      800.30088      26965.292      6496.0728      3.4222697     -54140.63     
     65300   3037.8377      8907.54       -8713.8139     -23542.029      3.3222317     -54181.321    
     65400   3196.4208     -15634.929      6273.0932     -23844.106      3.3639262     -54177.353    
     65500   3277.1877      11340.898      3756.8974      15630.397      3.5180791     -54165.203    
     65600   3053.3134     -4184.5538     -3061.674       12412.242      3.4883255     -54048.143    
     65700   2987.6479      36409.138     -23191.703     -10492.209      3.4204192     -54087.421    
     65800   2915.6456      10785.307      29306.923      15787.801      3.4614866     -54166.145    
     65900   2851.8077      60347.482      11353.1        8450.917       3.4092002     -54188.116    
     66000   3063.3499      10002.104      20320.888     -21848.453      3.4867502     -54327.409    
     66100   2910.1904      18893.274      8353.5144     -5897.976       3.4765814     -54253.971    
     66200   2932.3254      3792.2279     -49319.278     -58139.875      3.4003743     -54248.762    
     66300   2927.5657     -23980.092     -41633.721     -31311.07       3.3955677     -54237.541    
     66400   2905.9553     -12812.17      -25811.596     -36472.088      3.4217949     -54225.252    
     66500   2927.3991     -18222.14      -23832.179      2189.6317      3.5001926     -54229.632    
     66600   2988.7226     -4410.0156     -19180.736      12621.449      3.4956652     -54256.884    
     66700   2778.419      -31501.38       9085.3843     -9196.1447      3.425752      -54146.521    
     66800   3159.7317      18912.848     -10580.772     -18707.327      3.4019184     -54340.858    
     66900   2933.4701     -4088.9116     -4668.2369     -22508.917      3.4196228     -54194.505    
     67000   3202.6306     -10238.362      16435.212     -5896.197       3.4717381     -54194.176    
     67100   3135.0127     -11870.741     -12444.048     -7048.7791      3.3622868     -54011.881    
     67200   3236.7308     -12726.164      10601.969      12359.133      3.3690096     -54007.335    
     67300   3195.7843     -3711.7038     -11729.116      29820.284      3.4275175     -54007.851    
     67400   3177.788      -5739.2626      23384.847      6982.7022      3.3555403     -54095.918    
     67500   2969.679      -37850.463     -31647.79      -19963.147      3.3081517     -54095.731    
     67600   2955.4715      1049.6419      4023.719       34703.284      3.4658559     -54150.998    
     67700   3017.5894      6734.2032      4474.394       25608.238      3.4719458     -54226.424    
     67800   3272.076       21911.182      8661.7334      7830.4912      3.5199268     -54404.716    
     67900   2728.3065      35219.909      26254.873      15868.707      3.5338049     -54149.862    
     68000   3035.1083     -20571.815      39874.902      10427.354      3.4967798     -54357.607    
     68100   3122.1666      2295.3462     -18001.853     -9054.225       3.4087696     -54459.491    
     68200   2577.1203      14369.785     -7240.0082      36924.358      3.3053933     -54231.035    
     68300   2855.3928      20249.98       33443.152      14255.804      3.4394715     -54428.086    
     68400   2781.3248      12050.92       7995.147      -37956.687      3.4516507     -54365.974    
     68500   2763.4973     -10764.678      10591.716     -51433.027      3.3438264     -54245.515    
     68600   2882.398      -33878.719      21053.799     -1865.132       3.3657864     -54188.196    
     68700   3054.8667     -14202.102     -11670.191      2407.6235      3.4116279     -54200.793    
     68800   3102.3633     -36046.98      -5422.3477      1706.9625      3.4144521     -54208.234    
     68900   2993.3242      25873.814      51114.939      23966.243      3.4641011     -54173.933    
     69000   3323.2818      15120.148      9041.7933      26611.944      3.4632863     -54363.177    
     69100   2969.0717     -13167.797      645.78518      16064.989      3.5193471     -54220.445    
     69200   2745.0105      34043.516     -9027.1737      17722.586      3.4767985     -54144.018    
     69300   2932.6975      13205.388      18476.115     -30420.455      3.4472937     -54317.122    
     69400   2732.9255      32031.479      37052.691     -1916.6147      3.5287171     -54290.022    
     69500   2761.641       11090.491      19420.733      328.79541      3.4785812     -54370.981    
     69600   2426.9869     -29423.132     -25663.775      15231.915      3.3535565     -54212.911    
     69700   2348.9254     -20466.109     -33242.676      2189.5687      3.4113808     -54129.181    
     69800   2885.5941      17517.357     -9844.0615      39683.336      3.4082212     -54269.272    
     69900   3003.6062     -1602.9165      30977.337     -3459.2558      3.4260281     -54234.635    
     70000   2939.6259     -9315.4505     -31699.028      29021.706      3.38944       -54131.178    
     70100   3080.8886     -23896.747     -26323.96      -14765.693      3.3152546     -54144.167    
     70200   2917.1269     -10026.583     -14443.696     -16020.671      3.3202488     -54007.565    
     70300   3080.5955      27660.786      5811.3234     -13680.415      3.3191992     -54058.466    
     70400   3037.1967      15820.437     -17251.827     -6707.3382      3.3646762     -54018.868    
     70500   3428.6133     -10382.64      -15725.361      7725.2857      3.4419011     -54265.195    
     70600   2964.8959      10616.013      38769.039      32787.961      3.5164463     -54103.541    
     70700   2783.2772     -652.69123      5192.8591      10493.868      3.4595995     -54133.165    
     70800   2854.4646      20650.216      26008.367     -11870.438      3.4962917     -54229.036    
     70900   2869.1352     -20631.469     -7566.4287      16192.147      3.4140788     -54255.396    
     71000   2898.4865     -30452.983     -39160.604     -20028.553      3.3944057     -54262.128    
     71100   2983.5678     -9333.3297     -15440.278      17908.654      3.5829845     -54301.504    
     71200   2858.2299     -18912.74      -19498.325     -966.70973      3.5028264     -54234.86     
     71300   3006.4145     -15993.266      40430.813      7290.6083      3.5622864     -54281.912    
     71400   3325.1833      11884.57       35458.261      29984.049      3.5176548     -54315.831    
     71500   3254.802       21517.016      41764.227      24474.175      3.4698739     -54122.305    
     71600   3322.3458      51084.728      41229.345      49422.125      3.4259028     -54066.72     
     71700   3178.3789      9002.0626      17656.39       19840.406      3.3905895     -53983.107    
     71800   3242.8108     -35601.033     -35147.937     -16754.469      3.2608847     -54065.558    
     71900   2896.0728     -3356.9793      30630.958      3004.2762      3.3604645     -53931.02     
     72000   2880.0416     -8799.3632     -25598.706      2163.9956      3.4155506     -54005.494    
     72100   3136.705      -19812.204     -19912.876      22819.422      3.4266381     -54249.382    
     72200   3214.924      -29866.537     -11111.576      3517.9993      3.4987924     -54365.087    
     72300   2939.8817      76264.613      28574.636      53614.023      3.5714895     -54207.575    
     72400   3190.5604      19655.798      14015.853      18812.031      3.6238863     -54346.697    
     72500   3035.5581     -14947.296      764.76528      9622.6299      3.5510677     -54251.716    
     72600   2956.0026     -13624.361      195.06603      29721.815      3.5641648     -54202.633    
     72700   2993.286       32504.634     -5069.2695     -12960.899      3.4892645     -54218.798    
     72800   2912.4367     -6355.7846     -8067.9516      32875.282      3.4843142     -54178.089    
     72900   2807.5395     -12883.626     -31220.289     -10157.156      3.4176436     -54143.003    
     73000   2882.7522     -7207.7794     -12863.85      -13808.096      3.4933849     -54212.185    
     73100   2910.1877     -11929.646     -38100.373     -23911.218      3.4897673     -54280.061    
     73200   3080.1504     -29973.214     -13984.271     -32254.919      3.5020719     -54441.763    
     73300   2720.2288     -9817.1125      22137.466     -19840.372      3.4797791     -54297.384    
     73400   2722.8837     -2125.8195      1774.0289      18824.512      3.478201      -54317.349    
     73500   2708.6605     -24932.584     -23347.787     -30298.245      3.3558431     -54248.81     
     73600   3279.8287     -17619.293      31095.768     -27466.022      3.4832463     -54435.062    
     73700   3199.8926      22809.197      18437.298     -21401.573      3.4551486     -54305.765    
     73800   3065.3432      19456.091      23495.926      8014.9527      3.4070157     -54216.087    
     73900   3007.3042      24234.566      35336.635      12343.667      3.4167881     -54177.944    
     74000   2919.6918      14904.951      4471.3814      14491.806      3.3828451     -54120.182    
     74100   3103.1696      19920.136     -1814.4128      21209.471      3.4067964     -54214.193    
     74200   3122.8481     -9473.5164      23886.422      17240.079      3.3856784     -54219.173    
     74300   2793.6556     -15481.093     -9365.207       4796.1028      3.2581338     -54050.771    
     74400   3128.9729     -32209.683     -27784.414     -18904.412      3.292461      -54266.752    
     74500   2925.3775     -4722.9672     -3334.9472      623.93215      3.3099667     -54206.957    
     74600   3199.7814     -18223.589      4920.2413      7572.5583      3.3283674     -54424.91     
     74700   2814.7791      4142.7271     -14462.036     -10459.304      3.3357433     -54283.098    
     74800   2958.3552      25549.778      33338.057      25851.64       3.4360574     -54413.916    
     74900   2877.4109      11807.353      18219.158      58555.051      3.4746246     -54407.261    
     75000   2554.0628      3446.5223      10441.968      29302.08       3.4345397     -54236.503    
     75100   2902.7402      13087.433     -5257.2927     -6850.32        3.4056719     -54351.493    
     75200   3166.0485      53297.327      5893.4351      12673.049      3.4468699     -54341.797    
     75300   3045.0799      31345.234     -17870.334     -11658.574      3.2918473     -54186.75     
     75400   3056.3836     -2184.7207     -3713.3027      28548.638      3.4210038     -54139.234    
     75500   3138.6822      10723.258     -15757.465      10312.345      3.3742333     -54167.29     
     75600   3075.7546      40731.27       40586.37       41406.422      3.4174716     -54133.591    
     75700   3032.0803      21086.953      37513.173      8670.5014      3.3584746     -54145.743    
     75800   3248.9571      6994.2903     -11163.631      21204.786      3.4397971     -54326.725    
     75900   2917.6729      11642.092      514.82998     -13634.132      3.4096633     -54238.59     
     76000   2779.3774     -31869.355     -14201.786     -35824.92       3.3606584     -54253.139    
     76100   2633.6507     -27588.835     -34043.998     -53841.637      3.3511475     -54254.246    
     76200   2757.1233     -29194.014     -5646.9461     -29720.05       3.3607014     -54380.552    
     76300   2522.4911     -32434.888      21253.921     -20377.851      3.3202695     -54264.992    
     76400   2794.6362      14874.565      10818.48      -34207.591      3.3649627     -54313.174    
     76500   3002.9349      5095.7372      16593.714     -14736.684      3.3067716     -54269.689    
     76600   3298.1954     -581.49733      5047.1046     -33946.778      3.4404152     -54320.364    
     76700   3037.6172     -19461.091      4750.1167     -5470.9531      3.4071979     -54129.338    
     76800   3148.747      -11056.703     -6454.4527     -2271.8864      3.3820571     -54176.055    
     76900   3042.1565      7260.8751      9421.8427     -21899.161      3.4246162     -54121.29     
     77000   3197.1661      16206.485     -15250.485     -26762.337      3.3030989     -54242.565    
     77100   3035.1909     -20033.127     -16781.085      17528.854      3.3489098     -54238.01     
     77200   2786.7486     -909.47776     -36737.04      -34062.725      3.414923      -54197.363    
     77300   2790.1144     -13972.265     -22314.714     -81.941014      3.4173237     -54266.487    
     77400   2797.3814     -32288.619     -22884.673     -28138.697      3.3777749     -54319.764    
     77500   2763.1143     -6905.0752      619.01921     -48038.57       3.3732721     -54307.276    
     77600   2867.9725     -7656.1693      4859.8396      4493.5961      3.4606647     -54313.398    
     77700   3017.9334      17548.184     -7330.7302     -16320.518      3.3845954     -54245.386    
     77800   3067.9823      13098.675     -43771.325      12409.623      3.3923553     -54115.626    
     77900   3228.1854     -12730.391      4505.1503      14000.346      3.3605676     -54148.675    
     78000   3255.6471     -15496.353     -1820.1568      3636.5021      3.4184758     -54191.333    
     78100   3143.9738     -11919.371     -27564.125     -1795.1947      3.3386216     -54224.732    
     78200   3088.4329     -41205.657     -17490.206     -21818.253      3.2978619     -54296.54     
     78300   2602.7802     -21294.002     -22334.467      2288.665       3.3380729     -54085.562    
     78400   2948.9656      1872.1121      28412.264     -11500.422      3.4047008     -54284.777    
     78500   3060.0316      34896.226     -5358.3003     -6316.5489      3.4063026     -54330.068    
     78600   2920.2185     -16502.049     -20984.817     -3305.1409      3.342556      -54220.913    
     78700   3426.0267     -10423.237      3468.5606     -11707.783      3.4818472     -54420.011    
     78800   3334.9616      14944.183      35532.836      60426.262      3.5687943     -54260.758    
     78900   3504.7285      27082.29       64360.738      43706.545      3.507706      -54206.454    
     79000   3177.0015     -15742.112     -359.17139      5807.8297      3.317943      -53958.643    
     79100   3316.1026     -14287.124     -14522.803     -31897.118      3.3776719     -54035.876    
     79200   3168.2665      3453.3509      8211.4953      4958.8658      3.3990074     -54065.597    
     79300   3063.2934     -5187.0828     -252.57194     -22905.292      3.3435396     -54200.748    
     79400   2943.2946      5780.2059      31824.119     -7734.5878      3.3845918     -54214.069    
     79500   2774.6427      18124.295      2222.8408     -4491.0686      3.4503166     -54155.26     
     79600   2813.9605     -10547.955     -32028.656     -7609.8732      3.3783792     -54162.047    
     79700   3154.8876     -25780.433      1918.1579     -6735.5741      3.4264866     -54299.59     
     79800   3052.6599     -755.53063      7890.8772      8220.7122      3.3954423     -54180.278    
     79900   3079.9237     -31523.122      10049.171     -8961.6596      3.3041018     -54107.282    
     80000   3135.1137     -737.79731     -15739.772     -42251.179      3.4072011     -54036.927    
     80100   3187.8234     -11901.87       25945.706     -14217.297      3.483915      -54005.701    
     80200   2941.0597      380.40342     -2499.3533     -1722.8342      3.3561871     -53857.022    
     80300   3034.1435     -4957.131      -32270.71       18000.073      3.3729537     -53921.074    
     80400   2803.3309     -734.88743     -6578.1665      28270.704      3.4115249     -53842.544    
     80500   3188.5394      2406.0595      12994.737      6128.5564      3.4258119     -54089.758    
     80600   3179.1434     -1188.9662      9599.1112     -12300.179      3.489545      -54134.369    
     80700   3295.3216     -9009.6219     -9472.5359      12840.641      3.5105953     -54236.523    
     80800   3151.2856      17633.592      62352.682      514.88975      3.559049      -54206.852    
     80900   3043.9199     -11361.299      4801.2816     -12724.053      3.457699      -54200.383    
     81000   2775.762       5529.0543     -14017.353     -9169.3151      3.4072461     -54110.928    
     81100   3207.051      -4512.9741      780.81914      11883.058      3.462171      -54387.376    
     81200   2935.8855     -1489.47       -39399.472     -31351.171      3.4145227     -54261.743    
     81300   3000.0222     -25078.613     -35026.612     -37261.65       3.3969725     -54300.778    
     81400   2661.2591     -4701.0412     -7338.7523     -19147.747      3.3612902     -54078.481    
     81500   2983.2808     -9409.8287     -14686.65       2243.2855      3.3620596     -54092.647    
     81600   3296.9055      27426.323     -2049.6863      29394.398      3.3609004     -54075.994    
     81700   3339.8364      6508.3042     -16398.411     -1779.9291      3.2412331     -54033.99     
     81800   3137.0122      11645.986     -1614.2103      8941.7261      3.4508659     -53923.788    
     81900   3019.0603     -663.51465      36722.87       23055.638      3.4581634     -53934.492    
     82000   3468.0408      861.11661      17853.852     -757.68584      3.5782612     -54319.887    
     82100   3164.6387     -27397.223     -846.6255      -21133.896      3.5469547     -54280.036    
     82200   2805.8223      9597.1491     -26831.451      7710.8438      3.4833608     -54164.538    
     82300   2887.2815      44839.9       -3527.0091     -12728.402      3.5326743     -54259.264    
     82400   2989.1807      23526.331     -12910.925     -351.45901      3.5641223     -54348.943    
     82500   2811.2757      20336.938      3266.697       40583.267      3.5601561     -54266.227    
     82600   2978.407       14878.746     -7626.6194     -10646.945      3.4523172     -54338.406    
     82700   2814.0522      38721.7       -19080.35       7855.4793      3.4852596     -54168.435    
     82800   2958.0846      27583.544     -14363.606      41361.678      3.5158217     -54115.021    
     82900   3316.1945     -14347.73       22496.412      19283.99       3.5457539     -54200.159    
     83000   3060.7432      42845.207      15701.119      10123.887      3.5162949     -54056.344    
     83100   3282.6714      18324.355      22064.914      7568.306       3.4729901     -54202.786    
     83200   3142.2468      23131.866     -9088.5238     -1253.03        3.3955269     -54179.616    
     83300   2940.7633      33377.309      1916.863       5968.9724      3.4994009     -54139.437    
     83400   2824.3248     -11410.458      7443.8682     -8602.1868      3.4817023     -54138.263    
     83500   2914.0434      6286.2237     -8498.9555      13143.77       3.5024504     -54202.635    
     83600   2959.7537     -5738.5023     -20413.82      -8813.565       3.4614492     -54210.908    
     83700   3012.792      -16490.277      11474.209      17165.802      3.5557735     -54225.503    
     83800   3108.0154      20778.771      15221.522      25512.952      3.5928076     -54265.018    
     83900   3367.8079      39422.894     -11894.87       13823.359      3.6132355     -54398.245    
     84000   2995.7877      53314.956      1817.2384      12581.709      3.6152916     -54213.528    
     84100   3294.6515      28105.099      16100.031     -3526.3489      3.6039082     -54383.898    
     84200   2888.8315      8718.3295      41522.598      30816.538      3.5582272     -54157.297    
     84300   2891.7672     -2471.8775     -7247.7784      26631.121      3.4464986     -54178.305    
     84400   2892.2201     -26736.881     -41849.884     -4910.8904      3.3365279     -54181.433    
     84500   2963.1313     -36910.39      -38910.18       9419.0182      3.3939891     -54183.161    
     84600   3147.4612     -33902.674     -3278.7435     -2888.5055      3.3958337     -54185.049    
     84700   2893.5661      18100.09      -35189.623     -24601.065      3.3655311     -53895.965    
     84800   3246.3041      37377.731      1864.8071      17932.997      3.4343969     -54005.415    
     84900   3171.0843     -13340.519     -27408.816      4303.5056      3.2630975     -53968.376    
     85000   2980.5674      13662.416      2066.1186      31596.283      3.3562771     -53898.456    
     85100   3262.5143     -3289.3203      2199.0111      18441.653      3.2957639     -54079.937    
     85200   2802.2333      13812.512      13341.956     -24137.572      3.1649634     -53858.44     
     85300   3000.8126      39251.567     -25055.728      82.512451      3.3645192     -54020.889    
     85400   2873.4783      34037.504     -18474.402     -11444.923      3.3891929     -54059.19     
     85500   3102.7582      20374.182     -11009.827     -40388.163      3.3729345     -54317.522    
     85600   2852.3181      10521.47      -2914.6875     -8322.103       3.4710766     -54262.092    
     85700   2950.6543      5257.614      -24845.931     -13843.2        3.4070398     -54329.292    
     85800   2912.9404      29936.23       25654.917      20097.654      3.432021      -54302.246    
     85900   2871.6065      40600.673      24001.143      16214.91       3.4426095     -54252.939    
     86000   2954.7159      24978.964      12570.158     -14458.985      3.4229698     -54224.845    
     86100   3249.7106      9440.3335     -37348.863      22000.607      3.4198466     -54269.238    
     86200   3320.7669     -18870.249     -40428.273     -8844.2647      3.3210244     -54170.86     
     86300   3150.8636     -30015.226     -38873.786     -20714.519      3.2771423     -53981.711    
     86400   3289.9707     -35959.608     -46552.8       -13534.391      3.3664466     -54065.599    
     86500   3008.8236      7812.8374     -11142.703      18880.769      3.4871711     -53957.718    
     86600   3098.6184      6673.7614     -1284.5065      11152.778      3.5001554     -54065.214    
     86700   3213.5605      34191.067      10436.815      11921.1        3.5284017     -54180.773    
     86800   3195.1114      10943.832     -9210.2754     -1450.5193      3.4932736     -54257.901    
     86900   3018.2339      12072.842      18699.188      5563.6779      3.5772655     -54241.99     
     87000   2976.2393      8300.4508     -12461.476     -24431.216      3.4510546     -54271.565    
     87100   2958.061       13898.274     -20695.349      42876.759      3.5197915     -54287.149    
     87200   3123.5311     -711.63834      45896.068      15345.224      3.5473609     -54380.381    
     87300   2915.2062     -10927.469     -2844.276       14585.133      3.4673576     -54260.861    
     87400   3094.1198      39331.237      50363.398      18489.211      3.5577155     -54315.382    
     87500   3199.8284      6787.3089      5773.5307      15877.27       3.4675719     -54253.163    
     87600   3364.936      -10331.683     -21212.246     -7753.3182      3.4559535     -54228.122    
     87700   3136.0317     -3492.8689     -51387.091     -1647.1617      3.4274241     -54055.645    
     87800   3146.3522     -15775.481     -40816.069      7945.6197      3.419509      -54030.162    
     87900   3051.4683      28482.741     -20484.719      14833.35       3.5342481     -53983.031    
     88000   3113.5514      1728.2096     -40359.732     -34546.931      3.4320204     -54095.614    
     88100   2769.2099      4998.6331     -16605.242      870.13622      3.5049142     -54036.346    
     88200   2962.4623      5172.7633     -24575.401     -28423.779      3.4539698     -54265.635    
     88300   2801.2851     -9952.8735     -5506.0271     -10739.519      3.4425735     -54230.446    
     88400   2867.5231      1458.0608     -32254.637      9379.5637      3.4215689     -54289.404    
     88500   2903.5999     -3396.4748     -1740.356       14078.9        3.4715618     -54286.263    
     88600   2869.6393     -15636.389     -44556.324      4553.0108      3.4181404     -54234.555    
     88700   2936.0121     -8924.7751     -32219.794     -44895.525      3.4316085     -54212.046    
     88800   2980.9864      1006.7756     -27120.631     -25092.506      3.4069923     -54171.597    
     88900   3103.5514     -26869.277     -63687.82      -7008.5219      3.3593289     -54155.916    
     89000   3185.9138     -30394.098     -43818.786     -26445.212      3.3594468     -54117.042    
     89100   3100.8332     -41189.349     -18907.392      18951.448      3.4495802     -53977.022    
     89200   3159.6693     -17289.121      3640.8243     -22932.303      3.4554133     -53941.81     
     89300   3019.8312     -23404.669     -5236.9056     -5695.3489      3.4002283     -53794.029    
     89400   3228.7374     -12515.104     -21209.519     -35958.038      3.3256721     -53803.437    
     89500   3460.0423     -3056.2791      37841.203      2063.8173      3.404083      -53895.317    
     89600   3494.1369     -11091.453      17004.32       25672.466      3.3528872     -54017.783    
     89700   3063.0076      26921.177     -8174.4033      16337.13       3.3682594     -53945.538    
     89800   3234.1207      8857.3078      10758.466     -24928.858      3.3739492     -54128.918    
     89900   3156.1207      33212.378     -9141.8263     -1513.988       3.4171895     -54173.357    
     90000   3182.7438      35527.858     -2737.085      -1381.7246      3.4278071     -54278.362    
     90100   3099.4269     -6219.6936      26878.661     -29050.054      3.4663237     -54322.841    
     90200   2708.2113     -2447.6054      9351.3018     -5211.6188      3.3969424     -54164.17     
     90300   2817.0271     -11568.551     -170.97988     -13629.629      3.3597845     -54224.362    
     90400   2858.7384      16142.702     -16616.233     -38715.256      3.3694839     -54191.297    
     90500   3166.5262      24455.671     -3784.1487     -19186.057      3.409241      -54272.413    
     90600   2963.3084      16679.085     -1600.8754     -23990.702      3.3019738     -54064.335    
     90700   3275.2335     -17547.168      16607.203     -23553.264      3.319632      -54187.22     
     90800   2981.991       47690.173     -1233.7955     -15353.274      3.3436521     -54020.02     
     90900   2989.3021      24615.827     -22453.298      3828.4704      3.310319      -54013.997    
     91000   3003.8493      10882.674      18228.008     -1848.2598      3.2854546     -54027.919    
     91100   3033.3752     -13515.924      13628.415     -16305.032      3.1920317     -54061.049    
     91200   3116.1712     -34261.991      4140.8317     -31222.219      3.2293849     -54134.428    
     91300   2952.3307     -25957.415      31594.969     -34280.091      3.2767236     -54108.778    
     91400   3018.9461     -31415.691     -5721.8854     -52965.846      3.2864108     -54215.459    
     91500   2973.1498     -18201.176      366.92773     -32756.977      3.3106864     -54242.477    
     91600   2748.9475     -563.17254     -1772.9637     -25693.534      3.3069331     -54152.383    
     91700   2856.9264     -23631.019      1598.3641     -24289.596      3.3394514     -54260.45     
     91800   2743.7399     -35539.916      10669.414      199.23028      3.3223833     -54230.834    
     91900   2904.285      -19890.872      41040.337      11723.676      3.3861832     -54316.928    
     92000   3080.0714      17408.332      15858.98      -8121.3537      3.5011497     -54342.729    
     92100   3344.9945     -17076.695      7557.6415     -18764.047      3.4031924     -54398.289    
     92200   3103.9766      10328.581      30046.269      4236.1959      3.353784      -54204.74     
     92300   3080.6485      7422.5159      23692.629     -28366.668      3.4382861     -54151.775    
     92400   3196.71        10033.235      7374.0621      21331.817      3.4028115     -54167.188    
     92500   3065.8843      26831.753      8172.3247     -8949.4468      3.3645389     -54056.514    
     92600   3201.696      -5411.0513     -3778.381      -6288.101       3.3598146     -54088.668    
     92700   3145.799      -10519.122     -3276.0859     -23794.926      3.2878492     -54023.363    
     92800   3096.3108     -8144.2345      8085.7249     -5579.944       3.3562502     -53983.48     
     92900   3079.4268     -23533.485     -11308.458     -20089.751      3.3259764     -54037.402    
     93000   3175.9035      14997.972     -21985.905     -28621.381      3.254727      -54225.705    
     93100   2917.4477      20590.27       13674.135      13776.814      3.3279179     -54176.451    
     93200   2858.926       36573.212      19186.369      17097.655      3.3520989     -54165.205    
     93300   2985.3128      4886.7605      21951.484      13683.952      3.4094726     -54214.085    
     93400   2781.8465     -19525.511      2483.2058      18054.006      3.4098145     -54070.558    
     93500   3299.415      -26599.5       -39269.914     -27995.789      3.3793604     -54287.699    
     93600   3011.0462      8139.6712      8727.7592     -14701.8        3.3689422     -54031.921    
     93700   3035.62        773.64902     -18635.129     -136.77861      3.3498385     -53961.832    
     93800   3220.4794     -22890.09      -51816.776      10820.544      3.269898      -53947.353    
     93900   3340.4086      4643.8723     -6187.6734     -4970.2471      3.3377236     -53912.621    
     94000   3244.5815     -7358.6391     -2129.5682     -11628.103      3.2860146     -53822.825    
     94100   3058.6825     -9829.3357      17267.218     -9316.6417      3.2912176     -53834.785    
     94200   3281.281      -3165.2122      26138.303      4639.4704      3.332727      -54147.654    
     94300   3004.8124     -2483.4122      10883.354      23163.439      3.3025257     -54074.736    
     94400   3020.0592      19352.991      24673.823      39608.852      3.3780887     -54109.797    
     94500   3178.0874      17675.86      -25138.817      5499.1826      3.3469112     -54237.445    
     94600   2818.1558      16566.367     -34042.713      12975.656      3.4178124     -54111.01     
     94700   2849.5017      14559.555     -28504.957     -2056.3103      3.3837117     -54203.12     
     94800   2956.736      -10106.221      10662.444     -7853.2349      3.4252041     -54332.988    
     94900   2865.7993      34545.727      16110.854      21081.953      3.5022812     -54331.018    
     95000   2642.0246      18986.611      12769.275      1485.495       3.4145687     -54199.472    
     95100   2991.9712      17670.529      14542.003      6320.3524      3.5064913     -54299.551    
     95200   3113.8518     -10703.496     -7706.9859     -41890.806      3.3832092     -54225.536    
     95300   3024.9654     -27934.03      -25737.54      -4659.3597      3.3923422     -54083.541    
     95400   3169.4521     -18869.021      18789.199     -13162.541      3.3859133     -54137.141    
     95500   3037.9412      13625.479      12571.598      12662.278      3.3874068     -54063.491    
     95600   3055.0295      19891.104      29044.379      27691.921      3.3995817     -54095.482    
     95700   2877.4048      18553.957      49132.353      13500.108      3.4497847     -54057.342    
     95800   3079.3582      6090.6985      18604.491     -3540.249       3.4842223     -54205.733    
     95900   3078.4543     -17425.924     -16613.961     -30222.83       3.4212964     -54275.279    
     96000   2754.5713     -19158.984     -3339.2099     -1724.0846      3.4508077     -54184.111    
     96100   2913.0094     -19706.11       10274.411      43856.109      3.5626026     -54329.272    
     96200   2775.9414     -12388.164      34742.124      17047.159      3.4991181     -54272.331    
     96300   2958.1723      26316.722      58302.488      16671.532      3.5609009     -54368.024    
     96400   2771.6236      13979.006      37206.702      22865.443      3.5251205     -54203.969    
     96500   2752.7801     -44257.336      7435.272      -11834.81       3.4206962     -54073.995    
     96600   3002.2624     -35206.16      -18160.013      15109.656      3.3797231     -54109.132    
     96700   2925.8728      7583.7066     -4090.352      -2690.2363      3.3857099     -53999.338    
     96800   3193.0405     -8667.3539      17578.848      334.55869      3.3572519     -54105.223    
     96900   3233.0919      2111.3043      43413.548     -8232.0627      3.3595657     -54122.261    
     97000   3014.8271      11430.305     -3522.4151     -18952.532      3.2996571     -54068.775    
     97100   2999.5366     -21724.427     -2621.4184     -62337.424      3.2197796     -54152.355    
     97200   2943.4936     -189.40619      9547.885      -19480.91       3.4150421     -54240.595    
     97300   2927.2677      2226.3096     -10738.65       15863.264      3.3947746     -54323.489    
     97400   2754.97        4593.9075     -116.42302      4716.7324      3.3703884     -54248.375    
     97500   2919.1333     -8757.7457      18593.793      33489.531      3.399306      -54320.061    
     97600   3049.0899      3264.1643     -7939.6599      8.4377562      3.3859405     -54362.137    
     97700   2826.0204      1264.5505     -34225.501     -12453.912      3.3397818     -54212.328    
     97800   2975.1373      11364.326     -47372.057     -20169.233      3.3462393     -54258.956    
     97900   3123.7266      9332.73       -31371.92       15433.236      3.3931921     -54305.902    
     98000   3056.7997      34788.619      5399.6894     -15269.279      3.4621742     -54247.396    
     98100   2957.6136      8074.358       3115.8858     -5090.712       3.3810555     -54148.948    
     98200   3134.9153      9829.2        -27184.956     -92.910939      3.3518235     -54142.02     
     98300   3354.4065      41783.146     -15283.103      20248.992      3.3687003     -54095.809    
     98400   3507.2636      51314.825     -5724.7153      15783.948      3.3496937     -54121.813    
     98500   2951.4328      39228.542     -14855.699      8743.9887      3.399415      -53837.076    
     98600   3252.426      -8988.2205      5016.2728     -763.5262       3.4036581     -54076.697    
     98700   2841.4803     -366.31545     -11157.289     -1811.9831      3.3563906     -53965.904    
     98800   2896.2855     -34670.911     -21585.727      2341.3827      3.3678687     -54066.435    
     98900   3142.6688      4568.1663     -5747.2488     -2083.8883      3.4219195     -54223.375    
     99000   2844.8839      5087.9244     -47092.615     -52466.38       3.3858352     -54074.65     
     99100   2915.0257      15070.22      -14698.952     -433.85183      3.489216      -54139.027    
     99200   2781.5342      27778.702      7061.2495      14393.959      3.525331      -54109.303    
     99300   2663.3489      16635.723     -31406.587     -9776.1286      3.4161247     -54064.062    
     99400   3177.2482      9488.8893     -56243.22      -22723.671      3.3691146     -54299.486    
     99500   2949.8663      1075.0601      27773.488      17020.137      3.4684785     -54061.385    
     99600   3423.4014     -6917.3679     -8582.2478     -4244.2218      3.4056352     -54132.509    
     99700   3470.5257     -22664.493     -9834.5895     -16443.144      3.3202643     -54086.63     
     99800   3062.3841      10517.491     -15688.282      15234.599      3.3236218     -53916.005    
     99900   3107.1159     -4122.2649     -2308.2241      29008.821      3.4208932     -54030.073    
    100000   2934.0148      30507.274      6442.7917     -17080.424      3.3966066     -54025.423    
    100100   3030.5297     -6902.4473     -12707.934      5707.49        3.3879281     -54123.529    
    100200   3038.6426     -22594.376     -12786.553      2180.8468      3.4409583     -54166.34     
    100300   2969.3265     -18930.14      -10466.066     -25074.261      3.3571703     -54186.549    
    100400   2858.1717     -39253.969     -39258.779     -39497.675      3.4066094     -54175.946    
    100500   3010.3166     -11441.655     -27949.423     -47333.259      3.4755474     -54321.77     
    100600   3012.9475      7364.3247     -16976.026      13992.386      3.5522731     -54415.19     
    100700   2935.7157      28415.511      11037.143      23173.274      3.6306593     -54530.279    
    100800   2831.2812      30049.476      23357.27       7039.923       3.6285232     -54592.454    
    100900   2649.8361      32781.058      38077.437      53544.94       3.7027218     -54498.721    
    101000   2297.5698      21254.155     -4921.2184      33260.813      3.5041635     -54242.134    
    101100   2869.159       27652.377     -328.8314      -4317.0973      3.5320142     -54454.289    
    101200   2921.4778      1342.7564      45318.777      40006.48       3.6257733     -54399.481    
    101300   2971.1968      17954.489      4248.4417      28234.005      3.4826097     -54324.615    
    101400   3203.7109     -28632.041     -14981.43       2981.2321      3.4008118     -54351.525    
    101500   2812.8819     -16689.237     -33314.437     -5719.9088      3.4035547     -54059.887    
    101600   3046.8994     -10279.709     -12838.254     -49277.962      3.3670004     -54122.866    
    101700   3302.1962     -9245.0309     -34985.174     -13709.008      3.4738007     -54212.692    
    101800   2821.4267      23029.228     -47227.23       18727.454      3.4669041     -53941.153    
    101900   3132.5082     -2091.2313     -5564.2326      37336.784      3.5217516     -54126.036    
    102000   3012.7969      38712.92      -16270.367      648.44669      3.4774701     -54138.093    
    102100   2832.6009     -37166.348      24539.305     -11392.27       3.5225541     -54177.049    
    102200   3082.1431      14082.594     -32694.443     -228.62907      3.4908152     -54418.087    
    102300   2904.1638     -19544.394     -27319.156      25092.948      3.5173445     -54394.024    
    102400   2745.8807      9503.0439      1277.8169     -818.29443      3.504814      -54327.511    
    102500   2863.3432      3856.9543     -17804.551      32232.436      3.5112501     -54373.434    
    102600   2984.9623     -56319.066     -33055.137      10728.922      3.4691968     -54411.196    
    102700   2794.7691     -1145.8893     -13908.056     -4326.0706      3.5387747     -54253.287    
    102800   3099.7192      25353.371     -10255.58       20234.327      3.5981933     -54341.026    
    102900   3118.2481      24404.614     -22518.971     -15782.564      3.4846169     -54266.751    
    103000   2901.5165      22188.752      3998.9723      19941.351      3.543282      -54072.836    
    103100   3198.3062     -7085.7082     -7163.8        -4389.1144      3.447909      -54152.991    
    103200   3080.8356      23414.36       19519.575      26822.11       3.3781948     -53921.822    
    103300   3489.3853      31844.55      -11266.94       22179.627      3.3273233     -53962.021    
    103400   3171.7001      17052.93       17854.33       20010.592      3.2972322     -53745.561    
    103500   3300.874      -22976.63      -1705.7583     -22160.934      3.3843427     -53867.172    
    103600   3335.2302      4846.1348     -26721.429     -50945.312      3.3652047     -53985.995    
    103700   2961.3264     -7612.0008     -38410.507     -24134.624      3.3528261     -53877.052    
    103800   3258.0459     -6935.0186     -10630.476     -14359.228      3.4720226     -54115.476    
    103900   3002.849       7266.8458     -34830.9        21566.71       3.5339217     -54057.519    
    104000   3045.3621     -46261.887      5203.8409      908.39544      3.4816158     -54153.155    
    104100   2933.5909     -27391.014     -12155.385      23321.837      3.5115127     -54135.627    
    104200   3324.8604      13520.057      15964.554      24247.63       3.5952717     -54394.045    
    104300   3065.8004      24462.648      30779.994      6782.6098      3.5191516     -54298.155    
    104400   2989.0813      32150.328     -9891.3903      41292.754      3.6694986     -54308.174    
    104500   2705.1964      17377.053      7646.9079      9780.3394      3.5898779     -54236.669    
    104600   2872.1045      22421.328     -17138.573      30381.739      3.6260876     -54442.573    
    104700   2821.2949     -15277.714     -7564.2826     -3679.4412      3.5409063     -54526.41     
    104800   2770.9154     -4083.3539     -33419.381     -553.2927       3.5691823     -54543.737    
    104900   2831.133       37323.686      18167.301     -16966.573      3.7116441     -54556.459    
    105000   3087.8996      45687.449      54431.27       15524.143      3.740841      -54573.341    
    105100   2965.4117      4020.0235      26704.392      36930.742      3.5965641     -54375.012    
    105200   3155.7871      19254.359      21147.938     -8626.2453      3.5402836     -54430.805    
    105300   3022.0052     -20922.436     -23686.139      12294.839      3.4630384     -54348.251    
    105400   2833.7157     -9745.0267     -5785.1317      28888.404      3.4883104     -54257.439    
    105500   2863.7752      37537.227      3832.9179     -16349.337      3.4802207     -54274.858    
    105600   2983.6144     -5371.3708     -1761.4129      3374.1228      3.4908222     -54292.428    
    105700   2815.3522      7099.2177      22711.128     -14541.42       3.489769      -54130        
    105800   2975.4694     -23854.875     -12089.44      -19795.783      3.4300342     -54134.472    
    105900   2823.6052     -20078.402     -7397.1054     -14979.25       3.4186679     -53940.204    
    106000   3329.3932     -23779.123     -3.0788132     -12656.79       3.4675394     -54144.69     
    106100   3252.0265     -7595.1267      22128.759      49306.721      3.4637608     -54088.194    
    106200   2999.8695      7821.8441      39206.152      18961.967      3.4025521     -53948.041    
    106300   2837.8775     -40529.491      5135.3583     -15164.891      3.281008      -53875.067    
    106400   3076.3688      17098.794      42629.576     -9181.1409      3.3989543     -54020.008    
    106500   3151.4747     -25143.465      971.46003      25431.145      3.4215695     -54090.382    
    106600   2938.1699      18434.142     -5454.9826      10946.861      3.4401161     -54011.635    
    106700   2839.2034     -12262.765      42092.344      10136.547      3.426041      -53992.966    
    106800   2963.8496     -16784.029     -7037.6931     -36563.905      3.4097919     -54098.474    
    106900   3130.6454     -37092.25       8285.1321     -38770.559      3.3629274     -54220.757    
    107000   2996.9919     -28880.863      2991.8591     -5789.0054      3.3527171     -54193.729    
    107100   2948.8741     -28129.647      7301.7147     -22918.167      3.4398305     -54250.989    
    107200   2995.9318      13475.911      17311.531     -8742.353       3.5795413     -54393.333    
    107300   2847.1376      7604.2757      11951.796      27825.031      3.5502423     -54426.669    
    107400   2814.6426     -11785.895     -41825.085     -1251.9875      3.474388      -54459.796    
    107500   2694.4086      9467.6987     -33305.119     -16769.29       3.4888154     -54386.423    
    107600   2817.8194      47904.022      13888.105      30305.415      3.5734051     -54400.458    
    107700   3050.577      -15632.494     -36232.645     -12910.98       3.4061412     -54472.152    
    107800   2852.9928     -32983.919     -45776.512     -26964.531      3.3682117     -54314.469    
    107900   3136.6663     -6828.4157      7363.5842     -16500.553      3.4581555     -54431.765    
    108000   2862.037      -11981.838     -2646.2144      514.25603      3.4465272     -54247.742    
    108100   2788.1862     -13724.695      1291.4811      1115.9967      3.3731078     -54186.506    
    108200   2855.0633      762.63746     -9094.027      -23906.674      3.38927       -54157.392    
    108300   3180.7418     -20388.261     -11165.984     -1796.4652      3.42104       -54267.163    
    108400   3054.24       -17848.479     -5599.4334      10752.113      3.447869      -54183.725    
    108500   3083.7035     -6347.4273     -3259.149      -29341.647      3.398234      -54227.499    
    108600   2957.3797      6571.1944     -8259.551       4589.7253      3.4366139     -54227.592    
    108700   2936.223      -7553.4128     -10948.634      25048.405      3.461828      -54342.466    
    108800   2891.9045      3342.115       8118.1558      3522.2312      3.5657412     -54437.128    
    108900   2972.5796      11.421391      24115.969      6213.2945      3.5961513     -54526.994    
    109000   3020.026      -16012.5        43442.473     -10432.396      3.5851035     -54543.033    
    109100   2893.6467     -8233.8916     -7587.804      -9174.1819      3.4864661     -54430.7      
    109200   2826.6489     -15568.427     -6420.6536     -18906.376      3.3858358     -54297.479    
    109300   2825.5732      4779.4387     -10144.517     -17510.095      3.369591      -54176.424    
    109400   3053.6353     -13005.074     -22879.094     -3399.5997      3.3943068     -54243.628    
    109500   2908.0771      11847.549     -3634.0562      3994.4415      3.4093534     -54154.06     
    109600   3011.6384      10774.593      4443.9415     -21456.358      3.3118382     -54176.275    
    109700   2973.1035      2372.0022     -6136.5951     -18690.934      3.3581992     -54114.137    
    109800   3267.9659      21229.73       6112.416       22858.409      3.4690108     -54251.282    
    109900   3007.4537     -35096.977     -13514.64      -16443.832      3.3201091     -54128.486    
    110000   3101.4244     -23297.379      3017.1076     -4874.5838      3.3346985     -54257.79     
    110100   2874.6882      762.43453     -31783.883      7462.1432      3.3758534     -54250.622    
    110200   2793.8592      2592.8431     -12663.696      19710.366      3.4854044     -54286.045    
    110300   2734.963      -4779.9279     -6918.2218      29462.24       3.4188697     -54270.568    
    110400   2838.0326      11921.696      32988.883      39512.77       3.4875862     -54281.101    
    110500   2776.6759      36361.025      54650.921      19600.806      3.5283276     -54144.513    
    110600   3118.1608     -3031.3706     -18721.487      11766.069      3.3542991     -54239.384    
    110700   2984.8493     -1295.9394     -17938.675     -11486.477      3.3501071     -54142.529    
    110800   2941.94        21177.061     -1725.4287     -10459.202      3.4039001     -54110.636    
    110900   2957.0368     -15568.919     -23408.517     -45759.793      3.2427086     -54101.422    
    111000   2976.648      -14590.506      11911.947     -23872.168      3.2797815     -54095.355    
    111100   3135.6364     -16380.067     -10451.19      -36688.58       3.3381875     -54203.69     
    111200   3168.465       9641.3691      11894.805     -26126.075      3.3853279     -54253.102    
    111300   2967.9158      17429.267      20130.865     -19948.986      3.4116228     -54231.903    
    111400   2843.7211     -15560.591     -12470.587     -2029.3379      3.3880278     -54269.271    
    111500   2560.2491     -5641.8197     -3138.6779     -15036.924      3.3972622     -54158.472    
    111600   2669.93       -29670.916     -13265.678     -17842.331      3.3429184     -54215.364    
    111700   2916.449      -37779.066     -6699.0871     -30005.201      3.3353538     -54304.907    
    111800   2983.7852     -4039.8899     -24612.289     -9221.8936      3.2846493     -54218.607    
    111900   3019.8937     -17172.178     -23644.318     -14169.2        3.2263817     -54066.218    
    112000   3158.1049      5098.7145      13342.269     -20600.243      3.3238949     -54090.199    
    112100   3256.9107      34595.143      19774.758      17513.284      3.410866      -54133.636    
    112200   3188.9851      3698.2081      21715.911      57648.802      3.3720419     -54141.74     
    112300   3248.6241      14388.869      39357.902      14577.016      3.4909093     -54255.637    
    112400   2928.8228      13867.197      50782.408      30419.635      3.5133797     -54177.896    
    112500   2921.6711      17307.629      21089.75      -10450.531      3.402786      -54269.864    
    112600   3062.3566      3705.8012     -8400.3336      9574.9058      3.4507875     -54404.453    
    112700   2926.5173      10158.918      29060.723      6.8408539      3.4994571     -54340.525    
    112800   2992.6012      23751.793      55754.167      3557.3534      3.5064467     -54359.714    
    112900   3038.3912      27091.559      31113.811      38477.952      3.4447765     -54342.657    
    113000   3012.3034      3774.9771      16643.618      36847.016      3.4176668     -54225.158    
    113100   3097.6008      873.47525      38275.18       33095.276      3.434023      -54122.49     
    113200   3139.399      -7657.9495     -31182.873      11506.707      3.3721803     -54095.393    
    113300   2728.5627     -37080.601     -3041.0309     -11961.936      3.2902693     -53872.583    
    113400   3046.9423      5025.1314     -8613.9592      5240.5616      3.3515755     -54087.509    
    113500   3219.172      -4423.9156      18849.565      16585.218      3.4908211     -54233.409    
    113600   2898.3369      4415.5818      37184.979     -836.55332      3.4218101     -54110.195    
    113700   2918.3536     -6783.2464     -13981.315     -9609.3673      3.3421986     -54159.957    
    113800   3049.8052     -13476.486      46392.241      12514.479      3.4398103     -54269.393    
    113900   2921.5432      23764.511      18912.813      16924.878      3.4862209     -54226.694    
    114000   3048.9777      25433.685      8440.1606     -1979.5695      3.4400938     -54338.242    
    114100   2732.004      -4194.572       12013.137     -5877.1327      3.3060924     -54219.032    
    114200   2724.1214      23917.844      5773.3877      24787.612      3.3628349     -54221.548    
    114300   2965.586       262.24784     -15268.828     -5881.4498      3.3576664     -54300.969    
    114400   2897.7089     -420.3597      -9192.9596      9698.9578      3.4649812     -54148.452    
    114500   3038.995      -13145.919     -20175.17      -28138.582      3.3461638     -54118.244    
    114600   3007.5362     -17825.106     -37603.737     -31237.213      3.3058744     -54004.946    
    114700   3287.1755      33266.225      6983.6189      37284.778      3.4385082     -54140.317    
    114800   3270.7859      12029.974      21799.176     -4213.9231      3.3714514     -54146.327    
    114900   2984.7509     -483.6342       20754.014     -14322.001      3.3632188     -54070.23     
    115000   3007.9347     -19482.584     -2863.1989     -43185.597      3.2870048     -54151.915    
    115100   2990.329      -19614.988     -26.987827     -2104.1618      3.3268745     -54191.317    
    115200   2838.1453      20431.411     -11272.151     -5965.7545      3.3716879     -54116.691    
    115300   2982.6803      4334.8987     -2317.5764      2225.6542      3.3643042     -54168.948    
    115400   3363.7576     -7620.1766      16806.511      21076.211      3.3866972     -54230.972    
    115500   3233.0274     -10113.975     -36125.808     -17207.121      3.266882      -53968.414    
    115600   3142.8406      11042.587     -265.37811     -10355.046      3.3160969     -53859.934    
    115700   3205.9616      12874.643     -8738.4654     -7808.8259      3.3218507     -53910.614    
    115800   3039.5923      12955.301     -2879.1597     -9831.9021      3.4016181     -53889.961    
    115900   3217.764      -11761.98      -9639.1255     -31985.111      3.3546473     -54105.303    
    116000   3190.4665     -3418.5504      20893.463      39260.81       3.386222      -54197.3      
    116100   2935.004       20967.007      24746.916      7555.9028      3.3882092     -54114.281    
    116200   2922.8555      9018.4444     -12064.916      9824.191       3.4586637     -54119.322    
    116300   2916.1654     -28336.194     -28055.431     -15620.752      3.2573005     -54110.855    
    116400   3034.467      -21662.096      12881.368     -30557.369      3.31244       -54162.975    
    116500   3150.1758      11496.456      4523.6952     -12358.825      3.3811274     -54173.367    
    116600   3273.7449      17690.725     -1228.1643      1015.7628      3.3003669     -54152.625    
    116700   3367.5203      36845.174      11349.939      4360.0298      3.2901784     -54087.03     
    116800   3385.9379      4817.8245     -10629.717      14038.036      3.2747311     -53991.37     
    116900   3353.9816      15577.761      16830.343     -18376.307      3.3178875     -53990.616    
    117000   3141.7564     -1290.7911      11099.67       5015.3284      3.2833171     -53962.49     
    117100   3066.8647     -11817.985     -24934.822      7712.989       3.359523      -53993.296    
    117200   3093.1737      26365.195      3354.8046     -25644.967      3.4295894     -54043.415    
    117300   3265.2234      1508.2858     -1050.0814      6353.2538      3.4544237     -54191.888    
    117400   3089.9997      25547.138      50533.377      10988.987      3.5282237     -54132.022    
    117500   2864.6331      17482.522      33836.443      4073.6306      3.4763525     -54067.45     
    117600   2986.174       24684.978      30270.353      13979.958      3.4428772     -54172.566    
    117700   2992.3437      34060.209      8772.8832      13624.762      3.3566985     -54205.152    
    117800   2973.179       21109.823     -8478.7248     -12320.882      3.2874503     -54220.632    
    117900   2712.1883     -2601.4376     -24534.098     -20672.641      3.3080634     -54100.754    
    118000   3036.0619     -10624.582     -3407.9473     -21120.347      3.375192      -54278.795    
    118100   3001.6674     -2123.2105      13038.356      12188.659      3.4336232     -54212.684    
    118200   3214.2411      30330.777      18991.674     -2508.3425      3.417881      -54246.052    
    118300   2985.14        5686.0028      9262.6897      3251.6202      3.3554785     -54050.567    
    118400   3222.6532      19203.649      6995.4009      28353.849      3.4403538     -54130.902    
    118500   3199.7338      15865.643      20289.105      29446.786      3.4523497     -54091.368    
    118600   2961.9036     -17737.961      6547.5661      42261.619      3.3901887     -53991.71     
    118700   2861.6375     -7829.7361     -9981.087      -9564.7038      3.2685001     -54020.661    
    118800   2803.4161     -7095.9272      29247.186     -30037.74       3.3584515     -54086.377    
    118900   2877.0094     -8978.4144     -16169.146     -28642.388      3.1754895     -54210.444    
    119000   2585.6754     -10245.316      23624.391     -20774.098      3.3557985     -54108.02     
    119100   2724.0649     -49217.462     -20716.952     -21526.321      3.2756211     -54225.447    
    119200   2752.2877     -27272.177      16289.445      1854.9189      3.2950076     -54246.618    
    119300   2883.9091     -27444.117     -7783.2051     -26475.358      3.2620358     -54236.169    
    119400   2950.8017     -7847.3125     -225.18094      3354.9127      3.3195863     -54081.401    
    119500   3039.2091     -32514.293      32807.001     -10144.229      3.2431771     -54027.772    
    119600   2928.9983      20562.264     -12491.162      14157.01       3.2856455     -53919.789    
    119700   3127.3604      45405.724      28086.042      33374.83       3.350106      -54004.833    
    119800   3086.8402      14701.762     -14896.21      -3888.8101      3.2684627     -53989.691    
    119900   3183.7061      30616.721      4938.6355     -8796.5482      3.3107043     -54085.237    
    120000   3211.1722      3588.8183      24579.751      15734.723      3.2894091     -54157.46     
    120100   3212.6829      18504.974     -7256.4046     -17082.626      3.3362938     -54219.908    
    120200   3037.8258     -22917.133      15026.246      12945.947      3.3522069     -54211.894    
    120300   2840.8187     -6636.9425     -8918.107       14896.85       3.3470122     -54223.62     
    120400   3063.1803      612.12019      8218.7838     -5182.1892      3.3808565     -54431.594    
    120500   2770.0589     -23966.355      14457.782     -17277.904      3.4175718     -54293.825    
    120600   2749.8439     -2617.8326      34004.151     -13057.659      3.4459528     -54246.705    
    120700   2962.074      -5003.9917      6155.4157      15278.902      3.4995654     -54320.734    
    120800   2825.158       12423.061      2570.7479      1328.7514      3.4241223     -54200.886    
    120900   3007.1655      8578.4418      26808.02       6156.7742      3.4936177     -54272.589    
    121000   3039.1509      1459.1199      7650.6313      43837.701      3.4765387     -54260.321    
    121100   2974.1897     -13533.47      -790.9338      -520.73479      3.3680056     -54205.272    
    121200   2896.2355     -19926.323     -21378.827     -1776.4844      3.3486329     -54125.712    
    121300   3326.7012      33683.647      32190.847      54021.859      3.4214495     -54310.772    
    121400   2884.2841      18300.271      6482.7794      34268.31       3.3423053     -54022.966    
    121500   3053.9711     -9286.8024     -1725.6596      15009.786      3.2880874     -54088.396    
    121600   2993.5968     -1988.6367      37360.436      12822.676      3.3253156     -54047.447    
    121700   3162.4657     -6898.5452     -32967.653      395.3526       3.2942216     -54148.816    
    121800   2657.994       13301.205      6915.5565     -22576.661      3.2249539     -53901.406    
    121900   3062.7684     -23824.988     -45841.416     -46368.125      3.1907241     -54174.139    
    122000   2475.8215     -46436.665     -11965.096      4450.5852      3.2225827     -53890.47     
    122100   2671.3886     -20912.645     -19336.489     -15834.4        3.2947964     -53997.296    
    122200   3167.705      -42253.092     -23060.493     -16996.561      3.2870239     -54197.237    
    122300   3203.9994     -24372.628      4487.2866     -19621.76       3.3316391     -54140.046    
    122400   3060.6136      20497.076     -15967.353      6434.1545      3.296005      -54043.583    
    122500   3018.6055      11653.869     -15892.127     -26208.137      3.2438795     -54049.382    
    122600   3209.1326      11450.144     -33711.865     -13536.863      3.3011124     -54247.776    
    122700   2826.9649      11814.776     -24344.497     -1523.4469      3.2399103     -54192.335    
    122800   2556.611      -6089.6403     -17894.124     -27703.002      3.3611602     -54123.025    
    122900   2885.9032      8159.4918     -5914.9812      3116.3882      3.4094597     -54296.489    
    123000   2678.2295     -11403.688     -33254.731      9731.9247      3.3455887     -54157.341    
    123100   2931.6096     -44403.806     -52497.826     -22693.037      3.308539      -54250.048    
    123200   2864.9207      15249.997     -25317.92      -25418.001      3.301233      -54139.089    
    123300   2708.5485     -1284.1478     -30316.21      -20857.725      3.210169      -53979.257    
    123400   2846.8959     -22362.691     -34956.721      2256.1395      3.2184062     -53967.157    
    123500   3004.4727     -12115.84      -37672.248     -15198.453      3.2191169     -54011.48     
    123600   3230.3469      7525.9775     -10599.247     -16886.591      3.2636587     -54137.547    
    123700   3185.4586      13406.524      203.103        4595.3025      3.313942      -54148.509    
    123800   2846.3955     -7241.9355     -12601.84       47904.021      3.3282039     -54018.116    
    123900   2793.0909      4040.9269     -17726.629      25567.006      3.2863104     -54039.126    
    124000   3075.6503     -17662.012      10769.345     -7535.088       3.2592875     -54209.14     
    124100   2859.6483      19664.919      2889.3103      8401.3132      3.2834137     -54076.111    
    124200   3085.7271      1535.3907     -24443.773      9467.4363      3.2502347     -54150.544    
    124300   2929.0556      11002.225      1409.8639      42620.292      3.3882767     -53983.091    
    124400   3019.2797     -35229.226      46603.57       20763.233      3.3392653     -53905.821    
    124500   3236.8535     -26598.93      -4156.9533     -3711.0404      3.3210859     -53957.279    
    124600   3242.8384      14849.94      -6199.4521      30380.923      3.4095468     -53976.612    
    124700   3322.5883      7502.69        23630.374      31101.816      3.3819973     -54096.139    
    124800   2862.0016     -2045.7488      9526.6221      29607.181      3.3407633     -53971.148    
    124900   2980.8019     -436.65688      18764.345      28841.976      3.3667201     -54121.627    
    125000   3315.4639      9053.1256      3025.6195     -12362.013      3.3928419     -54345.404    
    125100   2958.0509      13085.959     -13578.085      28016.667      3.4332503     -54159.329    
    125200   3042.0327     -15366.294      1562.4143     -2471.9013      3.329307      -54213.517    
    125300   2794.5879     -23959.541     -13910.463     -14466.963      3.3436576     -54084.456    
    125400   2921.3365     -10768.412     -3479.4114     -7776.8187      3.3512657     -54109.252    
    125500   3018.7373     -25949.363     -29168.407     -42676.158      3.3088131     -54116.55     
    125600   2752.715      -1376.0576     -2805.4563     -29811.759      3.3459129     -53899.63     
    125700   3262.1166     -22659.587     -9481.8575     -20976.681      3.235919      -54056.574    
    125800   3003.4425     -16292.308      27591.911      41565.595      3.2715992     -53827.395    
    125900   3243.685       11567.34       17842.804     -8420.2705      3.3056015     -53883.403    
    126000   3534.4209      9998.0836      8823.0566      4436.1892      3.3261121     -53988.559    
    126100   3543.088       24429.85       5730.7918      27546.198      3.3824649     -54040.642    
    126200   3322.8471      13316.197      10262.871     -9704.6144      3.4485379     -54101.173    
    126300   3268.9053     -21059.005      22217.244      13903.807      3.4490159     -54186.57     
    126400   2989.328       16013.074      7758.8866      14018.953      3.4223144     -54076.71     
    126500   2875.8816     -5710.4832      46666.364      1658.6217      3.4633012     -54043.038    
    126600   2917.6706     -3248.8103      30246.611      23790.845      3.5354843     -54093.646    
    126700   2818.3677     -6498.1645     -6273.5564     -12423.625      3.3690397     -54054.74     
    126800   2770.1689     -22587.45      -41244.849     -11916.06       3.3863458     -54060.013    
    126900   3044.54       -5694.5509     -20809.526     -11789.794      3.3745958     -54230.418    
    127000   2767.0021      268.62474      54186.798      32816.217      3.4137139     -54091.391    
    127100   2791.2875     -7930.4925     -9978.6188      8562.624       3.281954      -54083.966    
    127200   3136.5111     -22559.058     -27148.062      16766.041      3.293715      -54174.265    
    127300   3097.103       6821.8798     -12319.005     -23253.167      3.3264354     -54033.202    
    127400   3093.8476     -33241.858     -1552.0258     -14644.378      3.407083      -53972.45     
    127500   2969.825      -32226.232      2251.6832     -38585.24       3.3418876     -53885.465    
    127600   3161.8233     -18237.359     -47823.524      4188.7416      3.3858878     -54018.423    
    127700   3071.3494     -52891.527     -12061.954      5403.9125      3.3331319     -54061.745    
    127800   3051.8849     -43554.359     -19836.141     -20296.42       3.4303575     -54147.517    
    127900   2972.6443     -23493.901      15972.932     -3606.6177      3.5245201     -54242.528    
    128000   3004.2179     -13071.531      24555.907      8587.5027      3.6122637     -54312.645    
    128100   2996.003      -9903.1723     -946.77538      16950.746      3.5197592     -54343.948    
    128200   2951.8261     -29414.755     -2442.1328      11815.137      3.5784929     -54368.794    
    128300   2875.7255     -41271.302     -12393.834      17012.636      3.467993      -54322.707    
    128400   3161.2324      12021.429      48110.393      47980.917      3.5739018     -54456.591    
    128500   2837.1218      38763.432      30540.983      20.075252      3.6033361     -54217.977    
    128600   3282.2502     -16649.128     -13196.665     -28547.242      3.4432325     -54370.505    
    128700   3138.3977     -16660.972      6536.3514      2512.1061      3.5017917     -54207.048    
    128800   3036.0943     -15607.675     -18420.615      41532.439      3.5145415     -54089.188    
    128900   2820.8572     -28533.321     -32099.493     -11008.334      3.5090307     -53955.332    
    129000   3034.0328      9150.4874     -11777.248     -12222.488      3.5706377     -54064.912    
    129100   3102.2194      6816.8079      3017.2447      30895.174      3.4701544     -54090.618    
    129200   3218.4618     -17378.161     -21130.125      15136.378      3.5047665     -54159.101    
    129300   2967.1048     -53286.913     -28437.201     -23930.297      3.3850863     -54078.838    
    129400   3067.1167     -33030.442     -8399.6531      1282.4046      3.4580535     -54217.532    
    129500   3055.7769     -47909.97       23512.235      25862.903      3.4604971     -54286.794    
    129600   2938.553      -51623.171      654.75756     -43824.955      3.3883585     -54315.183    
    129700   2675.1871     -5325.4192      741.03453     -15150.32       3.4570056     -54249.267    
    129800   2814.497       13342.653      28264.174     -28546.658      3.5977449     -54368.616    
    129900   2724.6781     -52810.809      36384.813     -40753.122      3.3960026     -54304.127    
    130000   2942.9        -9354.2502      6575.7163     -51586.157      3.4006713     -54369.192    
    130100   2887.3162     -265.91036     -1463.4726     -24272.6        3.4906346     -54250.237    
    130200   3306.2829     -21817.675     -10520.768     -30967.885      3.4103375     -54368.272    
    130300   3146.9673     -41004.072     -14283.378      4146.2828      3.3291795     -54196.137    
    130400   3100.3377      1668.7447      14095.628      6154.561       3.3640797     -54064.612    
    130500   3346.9421      22177.691      20545.013     -11996.031      3.3507453     -54041.97     
    130600   3210.8626     -17740.455      24290.31       15851.498      3.3831294     -53917.093    
    130700   3201.1922     -20185.919      1422.317      -23700.814      3.3348455     -53929.027    
    130800   3062.7631      4467.0506     -3183.609      -12138.278      3.3516143     -53920.515    
    130900   3036.868      -42096.153     -16004.217     -4111.9626      3.3268422     -53978.802    
    131000   2934.3908     -9036.7994      4636.2716      2454.002       3.3319387     -53959.993    
    131100   2945.3437     -43786.175     -13485.479     -12182.68       3.4296763     -53979.711    
    131200   3262.0089      23263.81       30475.416      16622.543      3.5794228     -54185.499    
    131300   2951.5265     -26193.656      22406.802     -1155.7547      3.5645856     -54077.807    
    131400   2835.9454     -12122.752      25793.294      12245.242      3.5428301     -54063.991    
    131500   2800.529      -34003.999      11040.684     -8939.6709      3.5552193     -54118.755    
    131600   2872.3428     -37045.62      -16840.513     -979.33227      3.5304744     -54179.236    
    131700   2896.2766     -24390.755     -54662.676     -5124.6633      3.5022781     -54234.652    
    131800   3040.4221     -31511.91      -12727.952     -21919.372      3.4941201     -54385.569    
    131900   2877.9165      21037.62      -23381.453     -8172.7358      3.5714501     -54409.738    
    132000   2925.6684      52789.641     -36250.634     -24755.275      3.6002294     -54552.202    
    132100   2741.3059      1349.6815      15124.085      23436.918      3.6646262     -54510.228    
    132200   2696.9288      6438.4796     -17027.852      35567.459      3.6225914     -54490.442    
    132300   2848.8141     -668.74575      13603.862     -4069.9226      3.5625893     -54520.892    
    132400   3021.1692     -2633.9773     -2634.2123      2101.4589      3.5476803     -54461.779    
    132500   2863.1574     -1132.1996      7726.3442      20421.679      3.5347623     -54206.906    
    132600   3078.9711     -15284.739     -17891.269     -7735.1139      3.4735494     -54281.952    
    132700   3202.9303     -5479.987      -20406.261      2613.2872      3.5166635     -54337.838    
    132800   2915.5253     -28073.612     -23459.192     -13054.184      3.4677321     -54184.542    
    132900   2991.2286     -41626.238      10715.708     -1351.2819      3.4576622     -54205.155    
    133000   3021.3639     -20408.452     -12470.216     -6241.0703      3.474981      -54178.009    
    133100   3186.03       -17062.773     -28448.903     -23273.353      3.4799069     -54236.211    
    133200   3341.9215      3838.2249      11690.571     -34239.737      3.4371096     -54305.659    
    133300   3137.417      -19211.7       -18931.298     -2432.9254      3.4384118     -54196.751    
    133400   2942.2259     -9309.961      -13361.518     -1677.5995      3.4638467     -54119.989    
    133500   2984.3632     -10980.387     -1172.6324      12906.099      3.5135038     -54203.354    
    133600   3101.1989     -3125.1729      1033.6933      4656.6215      3.54327       -54398.776    
    133700   2994.1868     -19189.199      26340.566     -8472.2174      3.4943541     -54436.383    
    133800   2765.9008      11212.133      9952.1571     -21815.276      3.5162747     -54374.622    
    133900   2579.2943      15564.024      17410.741      3315.7453      3.5294546     -54288.165    
    134000   2877.563       26521.197      24586.149      11613.81       3.5996089     -54423.805    
    134100   2855.2406      2345.4379     -15147.573     -3290.802       3.5460227     -54372.523    
    134200   2893.0302      1447.2719     -29963.972     -2467.5103      3.4324048     -54309.983    
    134300   2969.4234     -21822.565     -8521.3848     -3204.7628      3.3889053     -54208.281    
    134400   3099.0242      2588.4091      8318.2648     -19619.983      3.4213081     -54141.2      
    134500   2923.1225      4920.6802     -1066.2233      36417.177      3.344374      -54010.411    
    134600   3028.873       40359.258      11627.153      23050.978      3.3945542     -54070.739    
    134700   3064.1882     -5041.641      -23815.59       8876.1454      3.4075382     -54091.928    
    134800   2922.2947     -28556.101     -29828.579      16346.012      3.408777      -54013.717    
    134900   3223.1907     -33227.747     -3476.6987     -7632.0291      3.4717652     -54169.485    
    135000   3260.8761     -4323.0694     -14860.256      613.4682       3.4714517     -54203.363    
    135100   2860.5108      30373.07      -31618.691     -32899.042      3.3706866     -54061.842    
    135200   3122.0184      16037.883      18983.713      1880.6339      3.5436776     -54321.819    
    135300   2946.8123      27013.347      18808.165      44223.659      3.6102808     -54319.211    
    135400   3043.9549      17097.494      7947.5152      8556.645       3.5952723     -54415.508    
    135500   3132.4602      28693.834     -2321.3514      4279.5522      3.5970564     -54482.207    
    135600   2902.5769      9270.0444     -10954.242      29127.722      3.656487      -54365.763    
    135700   2633.5247      3331.4044     -2118.5798      43099.023      3.6142642     -54176.127    
    135800   3012.4937      12132.1        23854.216      33371.123      3.6275075     -54290.657    
    135900   3291.1137      79617.852      12253.162      30372.558      3.6378243     -54327.979    
    136000   3021.1743      29900.668      15293.786     -8449.6337      3.504603      -54143.783    
    136100   2925.1637     -11805.22       11498.044     -4234.0125      3.4671502     -54086.917    
    136200   3028.5295     -10784.115     -10009.84       10608.57       3.4537293     -54146.527    
    136300   2888.1147      20462.513     -9362.8929     -74.964243      3.4795342     -54052.362    
    136400   3036.001      -6579.2278     -52494.506     -4104.5055      3.4011712     -54101.393    
    136500   3262.4633     -32451.585     -10085.986     -29264.794      3.3703173     -54187.331    
    136600   3025.7769      8522.2652     -46300.755      8414.116       3.3231727     -54030.406    
    136700   2908.3158      2254.8505     -33734.902      26341.589      3.3378937     -53947.131    
    136800   2946.5542      18661.555      3244.6798      1778.0541      3.3641458     -53934.604    
    136900   3035.2903      5859.3017     -26627.443      4205.6945      3.3564426     -53962.817    
    137000   3156.2228     -14838.191     -27733.768     -21904.616      3.3522795     -54026.193    
    137100   3060.8839     -27896.185     -25431.478     -14821.816      3.2936847     -54051.655    
    137200   2690.1883     -12866.702      32332.134      24413.984      3.4308078     -53965.436    
    137300   2710.4682     -27703.947      481.18098     -19508.26       3.3936406     -54044.556    
    137400   2881.1643     -52012.23      -21813.204     -23738.51       3.4088718     -54142.73     
    137500   2879.8015     -20610.448      10000.604     -6494.9878      3.3078837     -54115.759    
    137600   3097.2281     -14887.92       5937.2248     -9634.1632      3.2723015     -54197.634    
    137700   2922.1169     -5796.9756      23973.787     -6943.8658      3.3467282     -54002.015    
    137800   3357.1692     -11120.959     -2794.9574      14953.692      3.428279      -54087.667    
    137900   3216.5567      10549.761      17348.013      9206.3728      3.3248927     -53930.743    
    138000   3230.3106      23782.864      1438.5033      1738.9291      3.3338286     -53956.614    
    138100   3204.1846     -40500.886     -14686.926      3809.9816      3.3263747     -54005.026    
    138200   2831.6417      15134.412      1579.2574      2718.0931      3.3859203     -53850.707    
    138300   2876.6614      7402.5986     -2429.4942     -28544.973      3.3759362     -53915.648    
    138400   3208.8785     -16335.847     -30195.541     -27645.479      3.3299701     -54132.382    
    138500   3053.538      -37729.569     -39230.641     -23813.584      3.311015      -54083.674    
    138600   2567.485      -51555.94      -12784.974     -19256.012      3.2934379     -53871.134    
    138700   2686.9486     -24219.151     -25527.81      -21266.354      3.2684609     -53975.758    
    138800   2777.435      -9292.4462     -20874.956      1291.5899      3.3433722     -53996.242    
    138900   2924.6101      19713.92      -27136.687     -15191.851      3.3847944     -54002.538    
    139000   3170.9344      22526.513      27798.923     -21228.317      3.3979453     -54044.058    
    139100   3240.5667     -30619.239      5392.2111     -12542.179      3.2842708     -53958.233    
    139200   3218.1148     -827.95684     -5398.1731      11192.267      3.3777904     -53807.974    
    139300   3565.6393      9518.0441     -24982.049     -28974.433      3.2982909     -53909.247    
    139400   3505.2911      8666.4571      10578.546      10504.3        3.3297787     -53931.865    
    139500   3036.8037      22742.095      44444.285     -10957.531      3.3890981     -53884.895    
    139600   3115.0979     -16516.525      18952.509      11388.137      3.37395       -54050.862    
    139700   3221.3318      31730.113      13355.045     -35803.379      3.3908912     -54183.848    
    139800   3033.2996      10366.575     -20690.585      24656.042      3.3487551     -54156.746    
    139900   2938.118      -8395.8321     -18341.062     -5071.2405      3.3606436     -54187.333    
    140000   2870.3275     -30943.161     -37054.417     -34313.288      3.2530281     -54208.985    
    140100   2830.7253     -39134.871      7123.9558     -2148.5404      3.2870244     -54213.176    
    140200   2892.2226     -13782.898      10435.999      49865.489      3.3578505     -54221.609    
    140300   3013.9543     -7256.9496      27262.206      22584.211      3.3906911     -54214.441    
    140400   2982.9573      6309.1321     -2762.9995      5406.3663      3.3555768     -54066.495    
    140500   2801.0205      11475.46      -13185.882      32377.003      3.2769654     -53863.229    
    140600   3055.8511     -2059.6852      10140.779      19922.592      3.3305672     -53976.732    
    140700   3414.8093     -16065.688     -8908.1706      6184.1231      3.3229308     -54179.053    
    140800   2996.8503      26959.178     -16682.336      6776.8869      3.4367732     -54014.583    
    140900   2893.1985      8996.8215     -22310.067     -42455.226      3.3556074     -54007.656    
    141000   3035.2675     -16380.606     -9882.6119     -78772.193      3.5174522     -54114.858    
    141100   2925.2421      17223.156     -17147.432     -44741.322      3.5496792     -54074.179    
    141200   3291.769      -21982.54       21330.028      19808.723      3.5428497     -54263.035    
    141300   2856.0051      6989.2167      45616.415     -12972.117      3.4925987     -54031.896    
    141400   2840.3308     -10215.176      27552.836      368.10352      3.4852388     -54018.454    
    141500   3025.705       685.26774      18509.958     -10910.312      3.4425302     -54114.728    
    141600   3251.4494     -16124.401      14425.424     -4419.28        3.4645475     -54235.176    
    141700   3294.8055      10393.483     -956.61137     -14443.61       3.524232      -54279.653    
    141800   2776.6671      13357.421     -16472.982     -59094.556      3.3699598     -54023.183    
    141900   3039.832       6642.6275     -13913.202     -18193.036      3.441465      -54190.371    
    142000   3053.0821      18636.95       27722.372      20475.963      3.5505873     -54235.954    
    142100   2857.7163     -2482.3519      4346.098       28633.079      3.4424751     -54181.407    
    142200   2858.1145      28503.502      29627.066      10449.011      3.5320815     -54214.463    
    142300   2933.4129      20916.221     -9159.8004      38960.067      3.4575228     -54268.962    
    142400   2748.9237      15861.234     -5425.3813      12221.124      3.3799585     -54156.728    
    142500   3019.1331      12751.912      47081.958      31830.858      3.4969475     -54258.877    
    142600   3182.1347      28532.54       50379.483      31259.184      3.489597      -54263.931    
    142700   3372.7318      10216.744      8290.9096      16501.412      3.450891      -54270.571    
    142800   3202.829      -1133.7299      11285.339     -11210.055      3.4588052     -54107.802    
    142900   3336.4453     -12817.436      5892.0472      8274.9224      3.4515892     -54167.058    
    143000   2943.5427     -16782.342      1395.4656      20401.304      3.4763237     -54014.961    
    143100   2879.997      -25832.238     -30066.583     -19315.019      3.3821194     -54106.198    
    143200   2698.0299     -46352.231     -39982.544     -50295.565      3.3338851     -54111.848    
    143300   2882.2494     -17882.669      16847.616      22663.081      3.4563542     -54215.462    
    143400   3110.1254     -4171.8596      22694.601      34193.349      3.5330394     -54331.237    
    143500   2993.5385     -11762.968     -20044.832      18183.977      3.4720892     -54244.412    
    143600   3107.9208      2075.2139     -2340.9316      13862.851      3.5681088     -54268.949    
    143700   2936.7476     -20529.896      19661.318      16095.48       3.5077803     -54128.906    
    143800   3338.013       16777.859      24103.649      40828.633      3.6624929     -54354.261    
    143900   2912.3312      14032.845      45364.026     -439.50156      3.5703133     -54166.635    
    144000   2891.6631     -27485.594     -14430.178      2903.5332      3.5402485     -54280.085    
    144100   2689.3525     -14686.135      15773.95      -8364.0792      3.6199413     -54300.291    
    144200   2697.5495     -29542.115      1688.7716     -756.46287      3.5551775     -54358.841    
    144300   2908.4569     -26434.649      1358.3945      993.23723      3.5178817     -54454.597    
    144400   2984.4969     -34391.445      43692.547      19679.627      3.5799196     -54421.219    
    144500   3103.2753     -708.24458      14203.048      24308.377      3.5155982     -54428.103    
    144600   2918.1574      9902.1916      7705.33        32624.983      3.494773      -54263.655    
    144700   2949.3334     -33308.844      6346.4113      7843.7287      3.4706466     -54242.245    
    144800   2973.9182     -45849.109      15.687073     -52678.77       3.3635503     -54243.433    
    144900   2837.0225      596.52759     -93.543898     -1197.1853      3.5086822     -54133.139    
    145000   2874.8678     -12441.255     -17691.846     -22473.984      3.4383409     -54125.932    
    145100   2843.3372     -19539.921      15079.006     -45971.046      3.2405679     -54094.079    
    145200   3141.9363     -7343.1475     -13160.626      7325.1956      3.3504304     -54222.82     
    145300   2981.6869      12973.487      19502.16       7082.4088      3.3582396     -54099.408    
    145400   3345.3904     -3914.7035      15191.05       19994.608      3.4324915     -54241.378    
    145500   3261.9773     -4037.8728     -5978.8055      23156.344      3.4167838     -54081.609    
    145600   3412.5432      7721.0837      15816.423      16969.645      3.4798608     -54044.182    
    145700   3726.2888     -1586.3233     -32937.583      7972.6521      3.3674719     -54183.396    
    145800   3291.2687     -9325.0689     -6155.1084     -16807.392      3.3702423     -54022.763    
    145900   3058.9549     -27579.661      15150.43      -5127.4885      3.3596366     -54032.299    
    146000   2878.5984      17032.963      5872.5574      21131.534      3.344821      -54013.019    
    146100   3130.5099      24938.911      14127.69      -5367.8512      3.3016056     -54191.996    
    146200   2986.0912      35743.699      10006.038      13144.58       3.3531778     -54136.928    
    146300   3085.5215     -9365.8318      12288.473     -20361.623      3.4368622     -54228.502    
    146400   2861.2206     -34411.564     -29467.792     -65259.25       3.3855035     -54173.24     
    146500   2880.6544     -22109.475      122.00837     -55741.3        3.4097973     -54227.875    
    146600   3048.9387      18819.104      17473.293     -48531.529      3.5539781     -54337.91     
    146700   3034.6825     -19570.573     -1321.4662     -34924.777      3.5566088     -54347.979    
    146800   2723.0754     -5794.0333      25304.813      30694.397      3.5201015     -54236.837    
    146900   2891.4519      8580.1794      29217.491     -13097.42       3.5265031     -54416.454    
    147000   2678.5526      2337.4237     -8552.5278      34820.852      3.5316631     -54321.117    
    147100   2546.1728     -21603.482     -30386.082     -24912.289      3.4131043     -54205.542    
    147200   3009.6669     -6100.3458     -40126.036     -15105.537      3.4463728     -54338.455    
    147300   2911.3129      5360.0962     -9562.2532     -16757.538      3.4028213     -54176.42     
    147400   3013.4521     -3863.8927     -5271.4844      2230.2089      3.4267429     -54171.354    
    147500   3127.9773     -40995.47      -26105.393     -50428.688      3.4232344     -54206.501    
    147600   3110.506      -18985.691     -8431.7991      3022.7478      3.4694591     -54166.087    
    147700   3196.6195     -19861.749     -13972.647      8734.6861      3.5083307     -54201.319    
    147800   3059.0767      1642.4121      6768.3581     -14429.708      3.4611083     -54149.66     
    147900   2934.1607      24059.437      15390.154      16764.551      3.5766991     -54187.857    
    148000   2770.4779      66749.761     -17693.043      13341.548      3.5475783     -54267.85     
    148100   2870.4587      25531.457      28691.061      27784.805      3.6105683     -54373.593    
    148200   2841.6624     -7486.4494      11350.634      3369.2877      3.5584385     -54375.389    
    148300   2696.6683     -11347.325     -24274.358     -29543.433      3.416936      -54266.342    
    148400   3005.7633      15589.383     -22420.776     -5937.7625      3.5478448     -54363.264    
    148500   3101.4463      28488.934      987.53882      3105.5402      3.6226985     -54349.829    
    148600   3010.9074      5338.5673      36238.809      13987.583      3.5289444     -54265.532    
    148700   2982.5863      11104.229     -18364.95       16446.979      3.5109506     -54244.814    
    148800   2990.6451     -10991.962      12773.841     -7866.5159      3.5257552     -54244.374    
    148900   2990.694      -33363.922     -17088.064      11876.905      3.411409      -54226.562    
    149000   2929.165      -15291.016     -4978.3238      20526.47       3.3765816     -54155.3      
    149100   2950.9643     -21434.455      12377.589     -34803.036      3.3960257     -54147.589    
    149200   3022.92       -13326.374      11702.51      -14766.259      3.3901645     -54087.983    
    149300   3163.0748      13000.088      32376.008      1743.7265      3.4225829     -54008.591    
    149400   3218.4992      29426.004      22413.696      14155.365      3.4780819     -53929.037    
    149500   2897.3038     -8377.3939      7336.3177     -28581.328      3.3037675     -53768.925    
    149600   2896.7497     -47823.815     -13064.173     -15487.7        3.3593027     -53795.012    
    149700   2821.0018     -46266.409     -47723.734     -26822.66       3.3070899     -53829.397    
    149800   3165.4533     -33462.76       3156.5855     -29386.681      3.3834234     -54135.607    
    149900   2898.5047      18875.006      21554.928      6681.4964      3.4208662     -54096.052    
    150000   2850.095      -26316.404      25687.148      14651.654      3.4412914     -54115.397    
    150100   2947.7399     -35015.348     -10800.236     -20666.669      3.3966689     -54205.071    
    150200   2839.0423     -35603.542     -4323.8767     -23635.958      3.3672108     -54154.656    
    150300   2895.67       -39793.272     -38317.26      -15858.64       3.3340067     -54188.189    
    150400   3029.833      -13712.673     -36015.014     -13413.839      3.3354883     -54242.867    
    150500   3087.408       16964.356      3304.9906      3461.2261      3.4092854     -54231.837    
    150600   2877.4635     -8010.7533      7265.1652     -29578.288      3.3073564     -54075.832    
    150700   3259.2341     -22832.649      20943.91       3605.1565      3.3456741     -54215.263    
    150800   3286.8548      30399.824      26199.306      37647.712      3.5221244     -54118.029    
    150900   3234.7655     -12906.198      36279.981     -21108.237      3.4258041     -53991.55     
    151000   3438.2027      5924.0205     -822.69334      9657.3466      3.5202427     -54083.661    
    151100   3064.8205      6187.8871     -31042.461     -12960.008      3.4190524     -53968.871    
    151200   3100.5956      7130.9865     -15431.136      43743.715      3.4061522     -54105.229    
    151300   2921.8871     -389.34366      29786.724      61809.172      3.5572313     -54094.151    
    151400   3045.1794     -11842.101      28955.413      31401.349      3.5789384     -54178.744    
    151500   3307.0653     -3024.8759      19541.089      14839.785      3.5855888     -54336.445    
    151600   2876.7919     -2942.1067      23290.307      13138.291      3.4756689     -54119.978    
    151700   3266.8286      10727.085      13681.131      12293.799      3.5184025     -54345.377    
    151800   3113.9578     -3165.1279      27747.761     -9484.6369      3.5373959     -54258.391    
    151900   3062.6211      7716.9818      22079.439     -32445.596      3.4243241     -54231.371    
    152000   3006.3976     -25210.368     -7751.0049     -6942.8229      3.3990316     -54176.248    
    152100   3219.2769     -24667.891     -43382.732     -6262.5777      3.3041488     -54238.752    
    152200   3228.2228     -14034.922     -19661.63       27881.856      3.3304508     -54182.256    
    152300   3351.3233     -14473.723     -19850.842      38153.791      3.5001978     -54191.403    
    152400   2958.0946     -31448.828      16326.144     -17971.263      3.4840069     -53979.402    
    152500   3114.8893     -14660.982     -20832.631      20538.177      3.4434357     -54129.482    
    152600   3232.6555      9481.7241      36987.698      19396.934      3.4381354     -54301.31     
    152700   2818.6545      5651.7111      23979.071      8600.8608      3.4275523     -54163.91     
    152800   3123.8882      20839.472      19337.346      33822.246      3.5905965     -54373.634    
    152900   3202.3678     -1153.2969      60804.595      48020.274      3.6154603     -54458.377    
    153000   2774.9291     -26731.972      12043.194     -27955.374      3.4720677     -54273.906    
    153100   2894.7458     -16153.428      9514.1127      17858.99       3.5379578     -54305.111    
    153200   2914.7686     -12969.454      6428.1527     -25831.182      3.522826      -54283.073    
    153300   2790.9646      44446.9       -19726.535     -1792.5733      3.5688477     -54182.907    
    153400   3043.7778     -16486.625     -23822.707     -1691.8492      3.557694      -54307.056    
    153500   2946.1398      8578.5039      12279.81       1426.0959      3.5722361     -54241.228    
    153600   3100.2979     -10430.495      29667.34       10603.259      3.5164508     -54317.833    
    153700   2839.0591     -11023.19       12045.893      30812.689      3.5432793     -54140.099    
    153800   3069.1353      25155.367      9942.7813      5345.9414      3.4572785     -54212.702    
    153900   3133.6233      21768.097      14629.038     -1933.6151      3.4908109     -54198.24     
    154000   3136.5844     -22608.953      10753.067      2609.2029      3.4121633     -54130.616    
    154100   3212.0852      31986.784      21800.605      16398.282      3.4754985     -54087.503    
    154200   3281.4088      51525.613      39537.906      27520.563      3.462102      -54014.54     
    154300   3132.3741      34766.848      16886.335      12159.307      3.4770951     -53851.924    
    154400   3268.8425     -8619.8601      6568.3468     -4502.4196      3.4131499     -53899.94     
    154500   3233.5831      1400.9696      13206.467     -34359.133      3.3880454     -53930.806    
    154600   2945.9193      22966.273     -10930.333     -14283.736      3.3867739     -53906.964    
    154700   3000.7231      11796.848     -5152.9423     -21616.971      3.4082556     -54099.378    
    154800   2940.1924      11054.453     -13325.58      -10277.583      3.3229239     -54130.11     
    154900   2666.6382     -7033.741      -12613.897      7358.3508      3.3686217     -53953.255    
    155000   2942.8565     -14553.615     -338.62096     -36773.876      3.3812065     -54072.961    
    155100   3068.0157     -45413.926     -3466.1344     -2303.9436      3.3023223     -54089.751    
    155200   3115.1353     -31934.829      8721.1306     -4572.3674      3.3023034     -54095.549    
    155300   3242.0171      3451.086      -26414.078     -6144.2249      3.3021125     -54164.717    
    155400   3229.1897     -39072.916     -21698.379     -8212.6001      3.3309725     -54210.456    
    155500   3000.3702     -28327.785     -7273.9019      853.98084      3.388949      -54194.258    
    155600   2897.4969     -17296.899     -22763.391     -8132.3936      3.3669463     -54258.156    
    155700   2694.4431      759.07563     -29023.76       7672.4225      3.3163781     -54212.874    
    155800   2947.5943      9246.7917      6427.1121      17009.984      3.4079009     -54352.082    
    155900   3015.4112      15449.909      43457.453      25189.231      3.5332053     -54349.11     
    156000   3014.8611      8285.0916      5353.1302      5807.8371      3.502118      -54285.916    
    156100   3115.1505      33217.827      27823.698      28149.964      3.5196148     -54283.526    
    156200   3113.2716     -2882.2099     -16419.908     -26241.096      3.3998121     -54262.587    
    156300   2762.5816      5705.8244     -47056.581     -2531.6284      3.3759804     -54068.924    
    156400   3024.091      -7816.6548     -9930.9981     -19415.294      3.4539728     -54209.916    
    156500   2950.2146     -5987.5565      5187.3181     -8502.6286      3.4336935     -54182.475    
    156600   3087.5905     -3226.6257     -33346.914     -7876.4848      3.446326      -54243.537    
    156700   2989.5621     -5657.7842      4615.1986      11578.691      3.4750952     -54185.998    
    156800   2887.1964     -2992.8109     -17595.865      51247.957      3.3647025     -54096.123    
    156900   3071.4447     -23335.861     -8400.0339      2980.1342      3.3834129     -54093.405    
    157000   3114.2244     -19049.776      53813.735      8596.7232      3.3788469     -53972.329    
    157100   3372.6392     -24613.355      3758.7475     -7506.9115      3.3599074     -54029.017    
    157200   3162.635      -2812.591       24809.183     -6417.7484      3.4648076     -53939.233    
    157300   2911.686      -25054.945     -40801.581     -2911.1469      3.267577      -53881.189    
    157400   3215.8446      10704.055     -8220.8244     -21402.32       3.4591606     -54157.72     
    157500   3278.3363      30546.006      24340.218      7377.6746      3.4770213     -54257.976    
    157600   2983.5891      34912.121      39472.953      17680.055      3.5094066     -54134.542    
    157700   2930.5012      32710.375     -6335.3178      11690.173      3.4244286     -54115.626    
    157800   2855.965       35471.648     -6052.4415      12339.488      3.4137233     -54069.007    
    157900   3299.8906     -14148.701     -15498.233      30255.251      3.5559301     -54304.341    
    158000   3195.0884     -19169.932     -21255.498     -49121.93       3.4710625     -54290.649    
    158100   3117.4496     -28406.321     -21562.307     -5758.8042      3.5163743     -54357.542    
    158200   2819.1959     -36168.79      -7691.326      -27730.651      3.5765128     -54331.581    
    158300   2938.9614      8880.2272      18761.46      -25642.139      3.5790205     -54471.715    
    158400   2828.1326     -30958.517      18271.978     -24343.337      3.5006987     -54437.933    
    158500   2718.2193      18732.193     -3560.9029     -4136.9759      3.5539441     -54344.375    
    158600   2766.9629     -33528.127     -15082.873     -39499.217      3.4413856     -54307.918    
    158700   2858.626      -17787.247     -13643.826      3061.9648      3.4255306     -54281.246    
    158800   3091.7456     -12111.26       14783.071      17883.096      3.4599258     -54359.458    
    158900   3023.1487     -19992.781     -14947.232      911.54531      3.4787511     -54293.582    
    159000   2888.7853     -29813.43      -16695.851     -8647.4673      3.504186      -54222.028    
    159100   2969.084       16979.091     -31587.761      21799.32       3.5618939     -54273.818    
    159200   2952.7316     -32508.01       11549.043     -17613.575      3.4943095     -54291.822    
    159300   2773.9845      54628.431      22134.501      40765.635      3.6718737     -54185.169    
    159400   3020.4627     -16088.448      6947.9188     -7073.2165      3.5434736     -54288.672    
    159500   3094.0162      53258.228      30762.982      9180.9205      3.6371792     -54230.984    
    159600   3395.2273      5916.2359      8750.6525      21805.335      3.5125181     -54262.57     
    159700   3148.2753      12755.109      4264.9477      14817.372      3.5026126     -54073.37     
    159800   3164.7021      13603.891      12335.251     -21496.448      3.4741577     -54113.257    
    159900   3014.3553     -19901.991     -14227.918      11235.082      3.5141617     -54119.776    
    160000   2814.5665      35561.725      10905.353     -8218.6922      3.4648084     -54127.178    
    160100   2814.5034      19205.318      2243.73        1361.2387      3.4915834     -54214.397    
    160200   2857.3695      6024.4358      8070.6778     -44882.058      3.5408485     -54269.861    
    160300   3064.1821      28277.631      42839.426     -3105.1969      3.5851921     -54381.057    
    160400   2907.2095      19.317994      9303.1178     -33720.234      3.5125554     -54286.155    
    160500   2777.4281     -36379.089     -33352.227     -24877.742      3.468582      -54192.03     
    160600   3018.3898     -20028.76      -25746.335     -16057.92       3.508516      -54296.981    
    160700   2896.9535     -7224.6765      5529.5824      2333.3555      3.5267919     -54192.447    
    160800   3190.305      -6248.2473      102.41871      39430.498      3.561407      -54244.916    
    160900   3242.6353      16151.123      9118.353      -8565.7814      3.5335903     -54132.546    
    161000   2933.9401      43110.197      16201.867      27274.255      3.4646118     -53886.696    
    161100   3156.9242      43476.143      31601.101      9702.2838      3.4616831     -53967.941    
    161200   3213.4625     -7440.9535      16704.418     -11691.359      3.3282302     -54012.812    
    161300   3183.4411     -6131.6844      13696.561     -31723.089      3.2959087     -54084.597    
    161400   2941.5317     -25383.553      17900.925     -7403.8819      3.3551013     -54119.933    
    161500   2612.2321     -49349.647      33613.879     -37964.823      3.3691608     -54026.926    
    161600   2811.1771      897.01709      23808.576     -21701.807      3.4193274     -54158.241    
    161700   2721.8615     -19492.917     -5800.5383     -6870.7241      3.4345059     -54111.205    
    161800   2998.3349     -16433.792      6423.6041      545.68744      3.361501      -54219.204    
    161900   2961.6088     -15699.965      17188.384      9375.565       3.3402919     -54106.754    
    162000   3045.1534      6611.622      -18652.45       6975.3316      3.3484169     -54079.182    
    162100   3071.0519      2264.8627     -26702.4       -4643.2881      3.3675902     -54036.766    
    162200   3082.1556     -17307.383      23432.947      18462.78       3.3444949     -53975.782    
    162300   3265.3203     -44028.123      23050.052      15473.541      3.2788539     -53958.979    
    162400   3438.1408      4767.6448      15879.49       43013.65       3.3868526     -53875.955    
    162500   3526.4073     -22915.453      4571.1157     -37608.011      3.2437708     -53847.712    
    162600   3236.4229     -27463.903      7832.6637      11863.354      3.2142316     -53752.992    
    162700   3278.0711     -29003.896     -4579.9677     -12768.553      3.2125792     -53867.644    
    162800   3162.0417     -21190.106     -4092.8498     -653.53039      3.1672672     -53881.46     
    162900   3015.6514      8851.228      -72.530519      72201.985      3.3109353     -53864.687    
    163000   3243.2809     -28987.606     -17204.238     -34105.96       3.2513754     -54067.319    
    163100   3031.4963      3800.9772     -12302.779     -15208.989      3.4267459     -54058.796    
    163200   3161.9798      24512.951      16707.283      13891.019      3.5303737     -54236.919    
    163300   2860.701      -13295.949     -5810.2461      11174.617      3.4155887     -54147.226    
    163400   2850.7013     -4320.8655     -49553.123     -1759.1582      3.3350763     -54171.239    
    163500   2901.8963      8149.9946     -10791.927     -5558.4098      3.370706      -54215.036    
    163600   2880.285      -38300.875     -5616.0246     -20661.572      3.3721173     -54175.174    
    163700   3009.6405     -18577.241     -2745.2606     -30701.5        3.398254      -54209.973    
    163800   3187.0492     -37689.111     -37653.377     -25349.772      3.3155087     -54255.55     
    163900   3351.187      -32328.643     -19699.294     -35377.628      3.3463591     -54266.24     
    164000   3266.8462      586.78254     -15911.285      3749.7977      3.4347454     -54120.38     
    164100   3048.8659      11137.09       14662.885      1539.3614      3.297384      -53951.967    
    164200   3024.3315      15152.535      317.35635      21900.164      3.3095654     -53909.817    
    164300   3086.6067      5729.8565      4897.5572      8335.1379      3.3663024     -53916.676    
    164400   3134.6112      2301.0454     -11252.517      11631.921      3.4296045     -53979.197    
    164500   3097.7567     -13057.508     -24135.28      -32627.884      3.4554172     -54131.244    
    164600   2813.451      -12182.965     -30525.447     -40523.626      3.3765495     -54085.355    
    164700   3090.944      -2646.7184     -1978.9524     -32588.374      3.5177335     -54303.752    
    164800   2936.6323      46448.594      35390.352     -7080.3009      3.5724374     -54269.964    
    164900   3050.0669      11565.044      2023.4786      2200.9647      3.5555666     -54367.3      
    165000   2939.8427      2490.7206     -10118.594     -6876.0101      3.5353306     -54317.92     
    165100   2841.6851     -28903.573      23216.558     -20787.999      3.4797372     -54236.139    
    165200   2991.5601     -7958.586       48307.312      1389.3913      3.5456721     -54223.786    
    165300   3185.761       35095.761      29160.359      12967.941      3.5278493     -54202.785    
    165400   3269.8199     -21179.884     -25721.825     -43897.116      3.3851855     -54163.318    
    165500   3049.5915      2799.0408     -1636.0622      7035.9371      3.4669562     -54018.018    
    165600   3140.9764     -2334.9164     -6066.9454      722.38061      3.407941      -54123.628    
    165700   2859.1561      3239.7434     -6210.4029      12650.081      3.4362564     -54093.589    
    165800   2596.0225     -24778.689     -9228.912      -4757.5328      3.3349576     -54088.04     
    165900   2885.8357      8994.7986      32185.252      22356.742      3.4864071     -54276.553    
    166000   3048.5642      43735.969      15572.665      17191.193      3.4660115     -54351.692    
    166100   2872.5955      10874.012      55434.107      38162.622      3.558981      -54244.346    
    166200   2851.0214     -4481.5843     -21491.7        6156.0282      3.3514845     -54197.128    
    166300   3087.0741     -20942.575      13262.782     -1875.6065      3.4379186     -54276.546    
    166400   3010.8766      2829.2159      35409.721      4702.859       3.4851785     -54155.199    
    166500   3040.202       10218.997      34404.49       57150.353      3.399032      -54105.816    
    166600   3122.1938     -2342.7324     -3872.9891      22587.434      3.3924481     -54124.989    
    166700   2964.2873      10240.239     -23199.455     -917.65348      3.3728772     -54053.259    
    166800   2947.803       6803.8747      2323.1405      435.30414      3.403615      -54120.231    
    166900   2831.4686      14487.962     -2939.8847     -7982.1571      3.3097641     -54215.719    
    167000   2526.44        13232.035      39610.414      41771.919      3.3044743     -54135.638    
    167100   2663.5937     -255.33658      10622.372     -350.57359      3.2484288     -54199.344    
    167200   2745.1144      17430.115     -6089.1931      1336.4338      3.3566483     -54185.141    
    167300   2850.6588     -9209.6383     -19773.669     -10686.711      3.2511048     -54138.05     
    167400   2970.4214     -11764.598      6813.5276      5890.4978      3.2833933     -54122.024    
    167500   2832.5537     -8535.3983     -4253.177       19231.076      3.3180864     -53990.635    
    167600   3160.5533     -21747.191      10073.164      22418.964      3.3376968     -54135.396    
    167700   2950.3923     -21058.317     -9338.521      -27508.22       3.2551463     -54006.964    
    167800   3209.5074     -344.81645      20847.569      17760.675      3.3126228     -54152.181    
    167900   3139.8899      46113.967     -4602.2287      45283.384      3.347225      -54132.408    
    168000   3112.5412     -8108.2507      6708.545       14883.553      3.2893041     -54179.857    
    168100   3072.5881      16644.073     -2515.9897      13598.856      3.3355313     -54300.017    
    168200   2910.905      -2756.717       20925.898      11216.13       3.3575261     -54342.154    
    168300   2940.6621      33995.435      38553.484      3811.6607      3.4199272     -54405.327    
    168400   2774.4692     -4455.0297     -23881.278     -27102.573      3.4014852     -54303.491    
    168500   2844.1806     -12791.111     -7969.5491      27226.994      3.4931973     -54263.382    
    168600   3090.7635      13577.841     -6114.3503     -10821.126      3.3873524     -54305.372    
    168700   3292.5533      3749.8944     -3086.3687      44471.908      3.5264638     -54363.861    
    168800   2942.3003      4136.4953      12040.139      40319.467      3.5698416     -54160.015    
    168900   2846.4477     -23986.601     -31129.95       8915.625       3.3766515     -54117.916    
    169000   3107.0788     -5973.266       1421.8159     -30430.298      3.4568282     -54253.232    
    169100   3000.1506     -23926.31      -683.90738     -4133.1295      3.4684684     -54189.731    
    169200   2905.1354     -6903.7424      21894.829     -10150.692      3.4777113     -54114.904    
    169300   2817.8479      26236.86       20662          21137.944      3.4883866     -53968.786    
    169400   3124.2998     -21919.942     -13724.129     -2405.9514      3.3862282     -53987.008    
    169500   3124.6249      5277.1315      3621.7043      13258.438      3.3982708     -53950.618    
    169600   3030.3969     -9647.6158      10545.433      15785.453      3.3399301     -53913.131    
    169700   3224.6622      20801.422      38823.43      -3625.9466      3.4048792     -54029.624    
    169800   3220.9189     -1154.2167     -7077.6033      6028.8426      3.3226181     -54094.269    
    169900   2951.0234      47127.055      4796.279       38155.871      3.4048685     -54050.375    
    170000   2854.9631     -6702.0614     -3683.8688      1175.2617      3.3736776     -54101.064    
    170100   2838.8821      10423.691     -7638.3911     -21135.76       3.4383258     -54185.883    
    170200   2846.262      -22506.61      -39016.404      15472.735      3.4677603     -54250.346    
    170300   3076.4374      7747.6853     -23040.074     -18829.115      3.4885414     -54381.895    
    170400   3361.154       17349.845      14765.867     -12600.718      3.5802679     -54535.879    
    170500   3179.492       10888.546      19733.363      11567.829      3.6093533     -54444.516    
    170600   3085.0476      34896.695     -7718.2129      2640.7574      3.5914707     -54401.562    
    170700   3047.8957      29590.49       23296.616      34000.002      3.6427755     -54388.898    
    170800   2892.4024      47601.976      65639.698      28167.307      3.598971      -54294.262    
    170900   2942.6183      6701.7638      21114.253     -9689.5214      3.4908155     -54283.959    
    171000   3105.5482      393.10628      14117.424      12442.74       3.5007962     -54307.117    
    171100   3246.1241      40259.889      34172.969      22200.871      3.5351787     -54275.181    
    171200   3161.2897      22018.681      11858.486     -9204.0416      3.3284703     -54086.999    
    171300   3327.4432      12951.148      35794.802      29619.977      3.3977917     -54104.607    
    171400   3031.7871      25643.305      31148.661      20968.592      3.3816041     -53950.879    
    171500   3410.3711      20466.44      -29118.596      3791.261       3.346758      -54199.536    
    171600   2904.5915      24300.595      19286.853      11220.362      3.4303302     -53987.399    
    171700   2740.5584     -23267.092     -16036.692     -1961.6312      3.38706       -53946.121    
    171800   3171.4138     -409.60225     -20601.476     -5448.8726      3.4798674     -54220.694    
    171900   3276.0313      37224.346      6739.8336      22455.225      3.5952309     -54312.343    
    172000   3004.2833     -34145.665      7559.1168      15616.841      3.5461219     -54217.72     
    172100   3002.3399     -12971.378     -1763.4227     -16127.683      3.534211      -54234.495    
    172200   2931.5666      17595.89       13708.193     -46236.14       3.4180067     -54234.675    
    172300   2878.6461     -7870.5542     -2761.89       -22072.497      3.3499571     -54250.986    
    172400   2925.488       10974.306      26770.199      4731.7462      3.4757201     -54371.105    
    172500   2521.4545      16650.461      22697          17885.452      3.4043677     -54260.375    
    172600   2718.8045      4673.5429     -20499.215      31011.684      3.5086851     -54384.903    
    172700   2603.2673      33140.154      30282.168      38809.261      3.5366071     -54286.575    
    172800   2981.9838      46394.93      -828.50681      19410.203      3.5172806     -54377.892    
    172900   2742.0331      26646.643     -9660.8387     -11228.983      3.4732971     -54126.914    
    173000   2964.2901     -17745.271      947.78169      3910.0086      3.372923      -54148.863    
    173100   2891.4093     -2490.7002     -29577.162     -8594.7893      3.3003127     -54020.564    
    173200   3100.1615     -10737.045      5156.7109     -7438.9019      3.3417883     -54069.543    
    173300   3050.0421      178.12473      18418.342      4396.0323      3.4236548     -54007.14     
    173400   3195.1654      19167.349      26777.289      24131.822      3.3833266     -54073.001    
    173500   3067.2339      37214.834      32727.933      8279.602       3.4470365     -54035.27     
    173600   2939.536       11739.215      6300.9322      53890.74       3.4233678     -54026.455    
    173700   2766.6469     -34199.382      807.59893      11933.353      3.3332803     -54046.136    
    173800   2833.5745      6097.9021     -24672.225     -20507.118      3.3344377     -54177.992    
    173900   2999.3816     -15935.958     -4180.8614      23064.058      3.3817752     -54323.355    
    174000   2760.4917     -9581.4534      20504.709     -9578.2099      3.3178385     -54197.829    
    174100   2867.8831     -25046.225     -12105.558     -11470.676      3.3332499     -54222.061    
    174200   2762.7298     -48007.042     -2865.1183     -19683.055      3.2726895     -54077.684    
    174300   2760.9893     -3879.9668     -10386.527      2431.3922      3.3555231     -53982.285    
    174400   3036.7067      23065.343     -7644.0462     -13150.154      3.3512549     -54072.944    
    174500   2853.2269     -7564.4021     -19191.687      13763.062      3.3522814     -53956.606    
    174600   3036.0945      26185.903      24936.693     -3495.2376      3.4221877     -54032.572    
    174700   2858.782       40022.819      27805.979      29935.711      3.3387838     -53907.768    
    174800   3097.9691     -8309.0364      38733.515      5497.2702      3.2605182     -54030.427    
    174900   3192.4739      2603.9561      14030.665      8060.9857      3.3118847     -54084.226    
    175000   2978.4997      12767.116      4460.829       2453.495       3.2708027     -53997.809    
    175100   2984.6672     -22899.58      -2966.1748     -44443.775      3.273223      -54076.118    
    175200   2814.0786      1454.1211      17789.815     -21598.333      3.3678625     -54091.535    
    175300   2899.0409     -5040.3258     -6793.3838      14588.121      3.3989192     -54207.871    
    175400   2716.0665     -19379.936     -25820.114      29273.429      3.3645648     -54134.948    
    175500   2892.0543      8714.321      -16554.534      8448.0744      3.4452065     -54205.76     
    175600   2902.4065     -4889.8482      4072.7448     -19619.801      3.3921022     -54134.862    
    175700   3090.4838     -19283.581     -8446.7952     -23727.899      3.3578421     -54105.968    
    175800   3595.0004     -6068.986       13788.081     -4571.5359      3.3985449     -54238.349    
    175900   3220.5474     -500.83048      39940.118     -14089.327      3.3668607     -54016.543    
    176000   3216.7645     -18408.215      23174.357     -34888.716      3.3796877     -54050.381    
    176100   2969.631      -20140.259      6203.4055     -6482.213       3.3503708     -53993.459    
    176200   3053.3422      233.68382     -28117.05       13649.634      3.3697435     -54121.206    
    176300   3088.173       11517.613      5231.1333      30219.526      3.4904563     -54199.131    
    176400   2898.1466      9280.1255     -11517.702      13474.61       3.3286285     -54132.893    
    176500   3056.8883     -6874.7557     -10020.331     -5831.5548      3.3657803     -54216.048    
    176600   2768.6808     -24993.835      27730.307     -8872.2198      3.4491017     -54026.092    
    176700   3152.7077     -26694.938     -16462.466     -41491.405      3.3807789     -54180.035    
    176800   3057.4343     -32196.852     -4907.042      -25335.161      3.4193543     -54043.712    
    176900   3206.5585      25887.059      40827.218      21955.567      3.4812929     -53950.793    
    177000   3380.0742      10310.253      2566.9259      860.89895      3.2933775     -53911.136    
    177100   3368.9739     -26329.422     -2443.8969     -23892.323      3.2565708     -53889.744    
    177200   3431.4972     -25398.354     -16968.679     -368.95164      3.2946898     -53976.415    
    177300   2920.925       14831.96      -3699.8576      24028.484      3.3473876     -53823.911    
    177400   2971.7774      23094.079      13992.397      77876.649      3.4128419     -53929.565    
    177500   3317.1604     -28407.211      2239.9383     -14136.515      3.3188872     -54163.031    
    177600   3121.0214     -8222.4101     -4983.3966     -14778.616      3.4485634     -54104.656    
    177700   2775.3797     -31498.661     -26819.292      197.44993      3.3659984     -53968.755    
    177800   3014.6435      29663.697      1195.837      -4179.9389      3.473614      -54140.58     
    177900   3053.8339      3218.1431     -4294.737      -5419.7569      3.4963946     -54217.691    
    178000   3172.328       71925.166      857.68004     -3662.4098      3.5624727     -54344.642    
    178100   2913.9349      3513.7872      4582.0269      11957.629      3.4784709     -54278.045    
    178200   3027.921      -21660.255      3955.2123      13644.287      3.5495485     -54410.55     
    178300   2907.5971      7049.074       14091.492      25413.274      3.5580958     -54408.577    
    178400   2659.8405      8688.1284      21593.012     -8840.5439      3.5113117     -54360.65     
    178500   2845.5144     -28430.679      1141.1496      564.26684      3.4952358     -54509.154    
    178600   2761.9051      13335.207      29032.954     -1005.2778      3.6116313     -54471.754    
    178700   2773.4842      6618.3607      9412.1985     -10236.54       3.5474842     -54381.365    
    178800   2879.9208      19197.731      14501.066      5356.5161      3.5962376     -54288.288    
    178900   3093.0005      619.52633      19284.115     -10638.461      3.5208959     -54317.011    
    179000   2976.6099      16775.092      8284.4748      23014.238      3.4645173     -54207.015    
    179100   3074.7687     -10701.232      28403.856     -10424.03       3.5175669     -54232.881    
    179200   3007.4351     -5341.2523      8965.0041     -19736.483      3.5063785     -54190.71     
    179300   2940.5456     -28419.338     -8101.8509     -12428.019      3.4023412     -54178.276    
    179400   2719.8575      10715.372      10114.901     -19215.844      3.5110376     -54110.85     
    179500   2738.2736      7623.9329     -7555.2898      11066.177      3.4824878     -54161.767    
    179600   2753.2616      3565.0235      5039.791       2561.2968      3.4964993     -54225.653    
    179700   2987.3557      44630.059      38739.781     -12170.034      3.5363363     -54387.245    
    179800   2762.3657      4892           1414.837      -8929.3626      3.3440807     -54289.276    
    179900   2724.0224      25574.313     -7402.45        21565.014      3.3995733     -54274.133    
    180000   2869.3768     -9670.0868     -22276.319     -29315.972      3.3848448     -54299.821    
    180100   3234.1884     -16870.676     -48608.166      130.98657      3.392804      -54409.212    
    180200   3181.724      -3905.284      -21325.316     -12696.964      3.4264734     -54284.97     
    180300   2910.5896     -23094.918     -10528.446     -6538.1243      3.4003867     -54063.37     
    180400   2990.7265     -2512.0218     -22273.208      6811.635       3.3886229     -54060.827    
    180500   2978.892       5212.3374     -15039.538      19056.658      3.3479881     -54034.161    
    180600   3104.5367      30953.128      3957.3109      14840.427      3.3282528     -54088.036    
    180700   3346.8918      11216.342     -4208.4066      2261.3293      3.3083369     -54230.014    
    180800   3081.4697      29458.931      19423.855      24679.18       3.4504392     -54175.571    
    180900   2987.4338      21000.686     -34892.427      26882.369      3.4675386     -54254.833    
    181000   3033.9062      20782.951      46652.679     -9331.6134      3.5322476     -54387.813    
    181100   2770.7519     -861.49138     -23010.508     -20602.208      3.4100865     -54279.441    
    181200   2730.7989      22586.023      28945.813     -17745.186      3.537109      -54248.607    
    181300   2860.9745      8675.6538     -965.07008     -19086.916      3.4508039     -54275.127    
    181400   2923.4375      11371.822     -15660.245     -21536.585      3.4117683     -54220.956    
    181500   2960.8825     -3418.7619      14486.238     -20345.576      3.393104      -54135.744    
    181600   2948.7109      6467.5647      47665.641      10259.178      3.495117      -54057.587    
    181700   3339.5155      9736.9603      8114.7392      38607.103      3.5197934     -54240.876    
    181800   3235.2143      107.31498      12942.824      15634.282      3.4472563     -54209.958    
    181900   3048.2228     -25476.929      4903.4667      32674.068      3.5179035     -54151.458    
    182000   2907.2112      25837.732     -9849.689       45219.655      3.4946633     -54095.7      
    182100   2958.1095     -21273.868      11311.158     -22966.441      3.3831221     -54158.365    
    182200   2876.3365     -40829.21      -9578.6179     -25280.468      3.2955043     -54124.457    
    182300   2904.1201     -22842.678     -12164.658      6133.0518      3.3871354     -54112.362    
    182400   3236.2279     -25532.594     -38826.652     -14335.541      3.3033451     -54269.45     
    182500   3218.8161      19388.315     -24075.774     -20190.408      3.4528274     -54297.64     
    182600   3002.2544     -21111.474     -34930.959     -9967.2799      3.3714676     -54291.442    
    182700   2695.7144     -7451.7344     -3112.8598      10160.201      3.3899182     -54251.032    
    182800   3153.2983      7630.6927     -28743.571      1019.447       3.5231481     -54567.347    
    182900   2895.339      -14144.519     -14904.755     -11263.022      3.4071564     -54442.248    
    183000   2796.8917      7997.0747      32622.085      42473.961      3.4405882     -54365.967    
    183100   2996.5815      41543.114      30166.933      36604.362      3.4295429     -54413.767    
    183200   2714.1658      19358.297     -23545.38       17275.499      3.2627421     -54164.227    
    183300   3025.0973      21006.208     -16589.121      13563.726      3.3459247     -54242.673    
    183400   3138.0648     -15478.606      16485.928      19076.711      3.2946015     -54227.225    
    183500   3092.8392      19901.981      26367.88       24326.468      3.4079999     -54135.703    
    183600   3040.1019     -15674.165      19598.377     -14780.925      3.2955729     -54072.427    
    183700   3239.0115      25898.961      25972.732      18458.387      3.4032294     -54143.792    
    183800   3043.0187      18740.67       25625.199      25039.674      3.4077942     -54053.68     
    183900   3128.9808      11362.835      19072.241     -28309.785      3.4177993     -54100.344    
    184000   3306.5386      26874.389     -35535.474     -17049.208      3.3758301     -54195.377    
    184100   2910.346       9876.419      -16140.25      -15974.488      3.3542332     -54010.833    
    184200   3158.2462      1784.5094     -25857.53      -31879.465      3.3378779     -54192.732    
    184300   2993.4376     -15971.611     -24265.282     -27654.181      3.3588876     -54159.353    
    184400   2882.5958     -31182.725     -14398.789     -20068.237      3.3536284     -54177.424    
    184500   2922.5834     -1788.3222     -32653.859     -19171.967      3.337384      -54264.464    
    184600   2892.6164     -9629.1471     -12866.092     -12280.095      3.4505527     -54294.721    
    184700   2653.5862      30990.79      -16142.151     -12033.465      3.4185841     -54176.798    
    184800   3063.3655     -5094.2218     -5336.5857      7445.381       3.5301817     -54375.325    
    184900   2932.7252     -20175.115     -12574.029      2464.073       3.5205502     -54217.631    
    185000   3125.0881      6087.9544     -27190.509     -14309.93       3.4570261     -54194.193    
    185100   3309.1181      12687.533      1236.2451     -43711.087      3.4887816     -54202.368    
    185200   3189.3853      8122.9189     -18842.104     -30234.667      3.4676788     -54120.747    
    185300   2959.6509     -14178.256     -3674.6022     -1995.2477      3.5058071     -54019.535    
    185400   2944.6437     -19993.954      3157.7628      6066.9103      3.5618765     -54114.587    
    185500   3013.9862      7422.0973      24729.264      7207.6768      3.5397691     -54256.978    
    185600   2860.29       -13579.99       22133.244      9778.0492      3.4591003     -54213.064    
    185700   2903.1754     -18215.231     -8257.2089     -14378.151      3.51834       -54219.66     
    185800   3170.8304     -3368.8429     -15828.486      2084.5641      3.5805118     -54344.04     
    185900   2946.4974     -32629.148      7880.7707     -34151.179      3.4008816     -54208.568    
    186000   3087.9262     -12702.194      15039.082      24773.226      3.4792514     -54246.821    
    186100   3051.7109      45552.23       11390.931      32407.27       3.5094247     -54194.903    
    186200   3124.2525     -21099.212      13968.054      35623.035      3.5360742     -54186.387    
    186300   2955.0879     -7231.2737      16311.343     -8304.3908      3.6024363     -54036.694    
    186400   2999.085      -25217.984     -17553.822     -8687.8336      3.4784416     -53972.927    
    186500   3130.9405      19174.676      11394.764      27861.035      3.5657229     -53942.995    
    186600   3319.5648      36708.81       8915.6256     -28454.904      3.5139328     -53966.708    
    186700   3119.3918      8819.24        38665.356      1012.7593      3.4888499     -53836.594    
    186800   3296.3827     -3436.264      -24699.528     -430.83343      3.361846      -53992.797    
    186900   3146.4468     -19519.328     -13411.524      24497.625      3.3790401     -54046.792    
    187000   3053.5431      2567.0352      24079.851      29141.587      3.4493111     -54120.016    
    187100   2889.0903      6150.8732      19095.366      29035.768      3.4448762     -54088.41     
    187200   2889.9321     -31060.483      5143.5093      22707.157      3.399971      -54110.448    
    187300   3126.6676      27825.169     -22723.048      21610.469      3.4391932     -54228.31     
    187400   3043.8061      14758.916     -11745.623      2457.9467      3.3741587     -54190.009    
    187500   2923.738       4747.7135     -4622.2385      36245.11       3.4789828     -54148.972    
    187600   3098.061       4318.6571     -2699.0962      8451.4258      3.4291787     -54291.453    
    187700   2963.7191      40750.465      15024.627      15012.88       3.5460653     -54298.231    
    187800   2662.1075      11529.667      13704.729      33007.374      3.537859      -54231.863    
    187900   2916.8305      27794.629      13732.545      25111.317      3.6368653     -54474.132    
    188000   2883.5734     -658.47472      57035.138      13587.278      3.7596764     -54512.256    
    188100   2640.8347     -19997.167     -10962.145      7926.1794      3.5121815     -54382.917    
    188200   2552.5674      14804.018     -17251.403     -3624.2829      3.514362      -54230.072    
    188300   3141.9128     -6546.9943     -13486.924     -5960.7373      3.5328506     -54383.825    
    188400   2836.1302      7151.0166     -2444.0786      368.83457      3.6203341     -54152.28     
    188500   3354.0996     -34612.842     -9374.8084     -1506.3883      3.6428793     -54398.272    
    188600   3165.0079     -24237.759     -36208.403     -25797.986      3.4764722     -54296.444    
    188700   2979.4786     -43035.952     -30583.762      947.01455      3.5134943     -54236.265    
    188800   2869.5691     -21338.98      -34214.666      5684.4885      3.548443      -54258.87     
    188900   3132.1514     -30256.256     -49042.509     -6321.1444      3.6067737     -54478.964    
    189000   2857.2468     -51568.668     -32382.991      6782.3704      3.5998262     -54380.894    
    189100   2972.6585     -18208.926     -17520.915      13216.778      3.5642873     -54463.859    
    189200   3155.9554      13687.899     -18004.45       15505.366      3.5944258     -54570.894    
    189300   2877.0437     -2136.5462     -472.64286      31513.293      3.5026902     -54369.976    
    189400   2928.6192     -10414.67       15870.18       9889.1908      3.5013415     -54289.294    
    189500   2844.2828      2295.4478     -9898.7987     -18991.563      3.4513328     -54110.389    
    189600   3059.9727     -11893.49      -25206.906     -5182.771       3.4417133     -54156.306    
    189700   3145.1077      2592.7371     -9563.2322     -6321.6386      3.4344121     -54152.474    
    189800   2977.1882      39806.618      18760.004      8307.0355      3.5030009     -54044.571    
    189900   3026.0631      37607.145      31237.641     -13694.457      3.4717439     -54065.569    
    190000   3046.4646      10987.616      58685.137      15551.549      3.5300655     -54097.438    
    190100   2843.3445      310.84137     -2867.8382      43636.078      3.4946406     -54046.316    
    190200   3033.8179     -2038.6339      27138.449      24594.287      3.5070297     -54250.815    
    190300   2785.04        29591.943      3660.2249      5203.7964      3.5639437     -54247.233    
    190400   2937.4015     -28475.073     -18671.417     -6714.5736      3.5137736     -54418.69     
    190500   2920.9979      27023.723     -7699.1058     -5039.0504      3.6589671     -54418.473    
    190600   2883.9618     -1292.83        9646.0169      148.11307      3.5697333     -54397.401    
    190700   2920.7501      42023.432      59629.994      24757.936      3.683011      -54379.898    
    190800   2761.5835     -14757.821      54023.859      20503.869      3.5738686     -54184.564    
    190900   3038.1174     -19307.82       5355.4014      233.87634      3.5920312     -54225.254    
    191000   2935.6971     -59136.451     -36729.692     -22207.302      3.38626       -54133.654    
    191100   2940.4676      12716.006     -14428.825     -23030.793      3.4938165     -54132.163    
    191200   2871.2416     -4038.2244      16029.847     -25185.583      3.453001      -54100.623    
    191300   3077.2681     -4538.2222      332.07832      16754.313      3.5468052     -54227.726    
    191400   2912.9007      29654.99       16759.815      463.23162      3.5238605     -54147.373    
    191500   2911.1719      6694.2641     -9889.4578      41340.668      3.5959772     -54147.615    
    191600   2950.3969      44611.321      36029.233      21219.462      3.5654681     -54147.272    
    191700   3164.3647     -27457.216     -16198.24      -4188.2867      3.4568596     -54212.727    
    191800   3217.39       -42731.802      4983.2007     -26693.711      3.5034357     -54185.347    
    191900   2951.4434      23894.619      4121.0862     -13671.469      3.438077      -54000.869    
    192000   3180.3977      9190.2377      27758.125      14569.365      3.4998723     -54120.094    
    192100   2853.1139      41654.265      15874.138     -11850.667      3.4872928     -53992.685    
    192200   2851.8452     -17176.824     -237.49618     -19676.086      3.481231      -54116.861    
    192300   3077.308       15495.811      7689.9736      3381.973       3.6252926     -54370.368    
    192400   3035.4546      30189.821      23480.196      4137.2795      3.5572754     -54411.812    
    192500   2892.2784      12687.689      20480.315      3571.9311      3.5699432     -54349.188    
    192600   3056.1497     -6399.9689      18702.611     -28272.324      3.5184893     -54428.94     
    192700   2947.2289      10540.258      19945.333      32641.811      3.5668969     -54336.352    
    192800   2931.3609      12190.366      40590.716      32216.714      3.6305868     -54284.234    
    192900   3194.9754      20430.04       33069.973      29641.521      3.5797338     -54359.677    
    193000   3099.7073      15435.055      39030.117      2517.566       3.5538159     -54180.576    
    193100   3116.9018     -23809.57       15248.668     -8927.5414      3.4509483     -54049.102    
    193200   3112.8685     -44651.089     -4912.2712     -27498.174      3.4399783     -54014.736    
    193300   3302.851      -18219.584     -24406.823     -6898.4345      3.3819881     -54125.732    
    193400   2947.686       19850.266      3417.2233     -320.08389      3.451788      -53994.376    
    193500   3181.0097      35816.907      26836.687     -11046.192      3.465009      -54215        
    193600   3056.187      -17876.374     -22786.144     -29810.397      3.3517019     -54201.797    
    193700   3018.1355     -56366.216     -19195.97      -21591.042      3.3685828     -54203.615    
    193800   2976.6566     -20413.344     -13407.965     -26182.434      3.3858812     -54209.662    
    193900   3327.194      -15325.052      44960.822      772.85111      3.5608643     -54455.032    
    194000   2982.2567      18177.219      39165.56      -16025.468      3.5384332     -54324.327    
    194100   2945.5883      727.39193      31252.98      -9217.5121      3.4931509     -54332.925    
    194200   2872.8913      39447.625      37251.351      4817.5574      3.5182659     -54313.505    
    194300   3277.1945     -14218.815      13011.458     -7700.8081      3.4967575     -54542.996    
    194400   3001.6096      4355.7614      610.09535      6017.1865      3.5536712     -54380.596    
    194500   2641.0539      27665.371      44002.811      4828.5818      3.5589181     -54137.563    
    194600   3088.9026      4449.4347     -1571.3376     -8242.1769      3.5462237     -54283.293    
    194700   3113.9163     -23512.635     -8018.5275     -35078.87       3.3564736     -54203.616    
    194800   3140.2487      37252.049     -7705.6951     -20358.424      3.4577617     -54153.718    
    194900   2961.6601      26239.867      28271.032     -7158.2504      3.5083418     -54029.775    
    195000   3063.992       19957.24       641.63339     -19140.602      3.4379841     -54112.739    
    195100   2797.5536      10934.117     -4756.054       5462.8543      3.4478261     -54036.937    
    195200   2841.578       15886.142     -19605.92      -13013.833      3.431656      -54162.278    
    195300   2748.5205     -7491.2845      33750.384     -3904.1309      3.4330332     -54191.692    
    195400   2700.2338      30959.458      14547.532     -11051.2        3.4614017     -54189.033    
    195500   3192.8302      1792.0418      1375.6365     -1316.1166      3.5181358     -54414.796    
    195600   2990.3382      6115.4801      15693.581     -932.17143      3.4717029     -54197.171    
    195700   3032.2368      5717.8999      6750.5372      1007.9019      3.4671963     -54017.722    
    195800   3206.3829     -7369.3703      14917.024      22902.194      3.4787592     -54046.518    
    195900   3242.0472      13240.102      21512.065      13892.248      3.4749146     -54094.988    
    196000   3053.2674      9301.5867     -8117.3608     -19006.378      3.396244      -54054.746    
    196100   3128.733       63234.406     -4578.1963      13823.337      3.4721038     -54177.506    
    196200   3088.2403      41918.701      8008.8482      25085.669      3.5288527     -54244.216    
    196300   2878.9556      19157.548      41568.868     -2286.2507      3.539916      -54184.347    
    196400   2865.447       9328.9836      6092.4002      10435.633      3.4886691     -54206.293    
    196500   2748.4774     -24821.666     -11578.419     -26706.964      3.5377025     -54163.113    
    196600   3036.5438     -17581.225     -25172.517     -29103.446      3.5136442     -54316.382    
    196700   2683.0255     -33866.685     -1816.403      -18801.132      3.4669621     -54107.254    
    196800   3232.5273      23650.596      8063.7425      4344.0434      3.5174039     -54332.717    
    196900   3264.7387      42003.592      3357.066      -14640.148      3.5040353     -54244.657    
    197000   3040.8343      13002.122     -2296.3464     -4648.0827      3.4103595     -54034.361    
    197100   3253.4532      1104.9839     -8754.7438     -12894.455      3.4912711     -54096.138    
    197200   3268.0937      22441.113      7881.8897     -25654.266      3.5901645     -54130.119    
    197300   3184.8882     -19497.302     -5260.5645     -3334.4895      3.4401544     -54196.583    
    197400   3003.0384     -338.21327      9866.3282      37478.221      3.538509      -54227.031    
    197500   3019.7133      4198.9876      24644.707      1648.5881      3.4688259     -54316.615    
    197600   2792.6629     -25320.11       2833.3977     -11956.479      3.4732409     -54237.206    
    197700   3176.0656      5656.2306     -37752.371     -5797.9544      3.5011801     -54451.431    
    197800   2944.4111      42479.391      21837.317      9596.4179      3.4862094     -54311.978    
    197900   2939.0862      27670.503      11064.669      7377.8606      3.4221932     -54289.946    
    198000   2893.1915      19554.006      54713.861      31311.057      3.5303774     -54185.712    
    198100   3236.8436     -12474.804      21510.282      13343.912      3.3821981     -54260.245    
    198200   3146.7963     -3723.5693     -26581.239      15900.229      3.3987414     -54121.57     
    198300   3422.6981     -27039.658      44199.13      -25177.701      3.4279702     -54239.235    
    198400   2962.3432     -5125.2564     -2572.7274      19030.326      3.4147726     -53996.098    
    198500   3205.8396      17044.662      3348.7291      4496.8956      3.4423243     -54172.308    
    198600   3059.0818      17158.648      12459.38       33214.174      3.458459      -54145.891    
    198700   2907.7         9594.4199      51501.255      29898.457      3.4638697     -54104.611    
    198800   3088.675      -5834.392       31552.864      496.56885      3.4549981     -54224.662    
    198900   2911.6126     -23363.89       4883.2137      20678.333      3.4273475     -54146.225    
    199000   2941.6079      7703.0973     -24823.917      26320.578      3.4588585     -54188.732    
    199100   3136.7656     -15467.552     -14377.893      3867.4064      3.4546375     -54342.217    
    199200   2851.6532     -29296.536     -47481.812     -42992.595      3.3904814     -54278.243    
    199300   2611.5725     -16000.481     -12583.183     -21631.451      3.4142926     -54242.334    
    199400   2835.4155     -6133.7451     -4797.7865      38865.78       3.5191806     -54402.011    
    199500   2746.749      -18064.916     -37793.166     -8235.4055      3.4209807     -54325.687    
    199600   2982.0114      810.80121     -17656.914     -7847.1697      3.4836429     -54376.37     
    199700   2985.2472      2102.2618     -14898.735      23039.822      3.4945024     -54261.424    
    199800   2925.7262      20327.036     -25139.255     -17108.655      3.4156447     -54128.411    
    199900   3199.4931     -15388.303     -10727.407     -11613.346      3.3494453     -54242.913    
    200000   2853.0341     -16306.382     -49732.779     -4724.7665      3.3675819     -54075.098    
    200100   2802.9159      28809.288     -34886.783     -5613.4849      3.3261018     -54057.997    
    200200   2870.2563     -8858.423       35625.494     -14280.313      3.4089071     -54114.106    
    200300   2836.4246      7694.3603     -1618.0165      21020.578      3.3948366     -54106.344    
    200400   2973.9021      39370.892      40418.429      18932.42       3.4932573     -54152.826    
    200500   3326.2034      26636.664      19640.048      7956.1513      3.4724729     -54265.115    
    200600   3085.2595      18550.207      17599.44       23399.266      3.4174742     -54030.482    
    200700   3096.6457      193.64885     -25478.015      1348.9326      3.3066355     -53983.226    
    200800   3300.718       9382.3545     -18052.307      1753.0709      3.3499043     -54084.847    
    200900   3228.6609      16034.959      4013.2449     -5869.9477      3.3614772     -54113.036    
    201000   2964.9804      8303.8675     -3975.5241     -16267.423      3.3484644     -54109.241    
    201100   3031.8908      11150.6        44011.326      26462.636      3.4914631     -54247.394    
    201200   2689.3254      7204.7242      19383.543      38435.261      3.4969019     -54099.619    
    201300   2740.586       4883.1444      5184.8199      56906.823      3.4377211     -54113.703    
    201400   3025.4013     -618.01847      10049.927      14724.791      3.4491472     -54211.233    
    201500   2954.6843      2204.848       324.84982      9227.9544      3.3583146     -54095.048    
    201600   2718.9369      7114.6328      43083.506      13955.098      3.3506813     -53898.069    
    201700   3126.7267      10766.873     -17634.162     -16535.236      3.2736987     -54068.36     
    201800   2976.3002     -8077.307      -15432.33      -862.83336      3.2840533     -53984.564    
    201900   3066.313      -11731.254      6042.1359      3282.3082      3.3274547     -54038.577    
    202000   3150.5546     -9691.2874     -3849.477      -29880.278      3.2763822     -54123.081    
    202100   3015.6277     -34813.23      -16000.274      15945.618      3.3320494     -54105.898    
    202200   2916.7385      3867.6203     -41928.039     -12890.664      3.252435      -54077.893    
    202300   2772.3976     -17606.069     -6797.8634     -28295.239      3.2513599     -54015.946    
    202400   2851.1884      31260.506     -17983.002     -1911.7126      3.3478758     -54054.135    
    202500   3077.9632     -7824.9368      17920.188      21106.332      3.3425847     -54170.344    
    202600   3065.649      -9152.3441      17096.389      29406.13       3.3136084     -54137.488    
    202700   2816.1337      59489.59      -2389.9073      24840.9        3.4329427     -53981.736    
    202800   3042.8446      24486.778      61271.306      19084.004      3.4756767     -54101.175    
    202900   3128.3113      4943.8552      4252.7105      14751.245      3.4202656     -54158.067    
    203000   3050.3411      771.28048     -10179.39      -28550.801      3.3779494     -54177.183    
    203100   2808.1683     -2283.1717      1159.8464     -8084.043       3.3809436     -54166.296    
    203200   2794.6456     -24287.469     -27843.405     -8792.138       3.3354791     -54251.14     
    203300   2981.3282     -28828.038     -19865.43      -27848.693      3.4038413     -54396.761    
    203400   2961.357      -17718.246     -477.75816     -24415.838      3.4451667     -54410.121    
    203500   2777.1017      12091.836      2086.2504     -5240.3909      3.4024382     -54300.182    
    203600   3023.8689     -21254.949     -7969.2588     -675.63565      3.4338951     -54360.416    
    203700   3272.5773     -4234.2857     -3649.1463      6160.7866      3.4307645     -54362.53     
    203800   3074.8459      2403.4723     -25056.701      13387.209      3.4566163     -54176.027    
    203900   3087.0966      14046.175      39378.077      12019.697      3.5926791     -54165.262    
    204000   3086.5983      8618.4409      37799.133      8212.7303      3.5457433     -54175.016    
    204100   3142.8516      42696.63       6102.2217      43521.88       3.6065227     -54231.229    
    204200   3218.648      -24672.886      28045.964      41515.489      3.6022229     -54302.385    
    204300   3322.3271     -5054.8509     -32610.947      37329.291      3.5340336     -54388.759    
    204400   2951.8658      4348.3127      5229.367       3669.1009      3.4927741     -54213.106    
    204500   3015.9922     -35593.367     -13435.311     -11598.604      3.3935957     -54276.156    
    204600   3091.2914      32828.606     -11458.595      75.635641      3.5438889     -54342.747    
    204700   2824.6271      5294.6116     -187.85755     -8026.4635      3.4474722     -54208.471    
    204800   2939.562      -23150.458     -39427.67      -39793.728      3.3866609     -54258.622    
    204900   2994.7116     -30469.74       10316.348     -22621.901      3.4226128     -54274.828    
    205000   3045.7245     -7228.6838      14996.892      3115.4688      3.2874824     -54270.278    
    205100   2857.0546      37270.6        9386.1336      41348.113      3.3763847     -54096.645    
    205200   3003.6383      24528.589      9710.721       14620.15       3.4073141     -54085.194    
    205300   3221.0255     -1470.532       5809.5417      5818.0703      3.3827259     -54130.718    
    205400   3097.2271      4313.7385     -7372.8812      1975.2645      3.4529014     -54030.496    
    205500   3244.7584      28887.684      20523.54       33166.172      3.4798367     -54133.519    
    205600   2825.6299      1138.4996     -10491.632      9057.4482      3.4000061     -53990.604    
    205700   3264.386      -30512.557      7075.2715      21454.654      3.408933      -54357.673    
    205800   2861.4546     -23883.291      14652.775      50268.736      3.3543509     -54198.834    
    205900   2859.0974      15201.467      9187.4171      7059.5592      3.4162071     -54216.649    
    206000   3014.4663      6085.1521      6598.0862     -1189.1071      3.394331      -54288.747    
    206100   2924.0686     -21951.35       8828.8958      16751.626      3.3689156     -54208.252    
    206200   3242.3604      21540.766      9150.638       39646.886      3.4624068     -54335.338    
    206300   2873.3077     -11816.855     -15527.016      42464.498      3.3943603     -54128.97     
    206400   3034.0135      9686.3567     -25119.292      5034.8112      3.3260977     -54213.42     
    206500   3130.4828      35470.031      2850.8634      27408.562      3.4364693     -54244.606    
    206600   3180.9675     -35876.198     -12307.193     -13357.405      3.3046125     -54237.332    
    206700   2922.9365     -5865.1912     -42879.195      1906.3522      3.3166841     -53995.024    
    206800   3162.6431     -10442.107     -1915.3437      5861.0936      3.2923855     -53992.383    
    206900   3114.5113     -5008.1696     -37103.669     -47688.901      3.229236      -53878.764    
    207000   3351.1894     -17618.063     -12912.547     -12385.456      3.2827725     -54012.674    
    207100   3079.9529     -2225.3684      7587.2771     -31347.355      3.2964412     -53974.949    
    207200   2943.7155     -50238.627     -14048.365     -6943.9705      3.2706589     -54020.347    
    207300   3032.7927     -33648.45      -6895.5876     -3247.4333      3.3295867     -54132.606    
    207400   2846.3196     -9862.83       -19204.995     -15958.343      3.3364557     -54082.691    
    207500   2952.1895      10215.736      29975.524     -11127.817      3.3767572     -54189.946    
    207600   2816.1237      19230.04       24251.149     -175.31279      3.3955178     -54132.787    
    207700   3013.5163     -20931.219     -22944.81      -8214.0279      3.2109992     -54248.051    
    207800   2882.2857     -16301.263      2420.0353     -17858.518      3.3231151     -54167.009    
    207900   2991.4125     -37969.948     -18753.972     -18597.655      3.3409117     -54221.946    
    208000   3056.9859      13364.377      11416.05      -4635.5518      3.3698266     -54238.845    
    208100   2872.217       52884.48       13485.689      29434.476      3.4166646     -54088.753    
    208200   3265.0799     -1538.2004      21034.144      17331.841      3.4096123     -54206.997    
    208300   2950.3571      1599.3441      38665.47       10753.768      3.3613669     -53971.35     
    208400   3433.8042      35218.281      11595.434      34005.118      3.2996383     -54159.734    
    208500   3141.8774      22.625344      12087.858      15297.975      3.1832188     -53958.828    
    208600   3217.0867     -32307.396      28306.098     -9892.9549      3.1548988     -53991.892    
    208700   3123.3108      7092.3382     -26665.253      2162.7325      3.2476145     -53997.219    
    208800   2944.5828      24006.222      14109.501      35156.952      3.3241108     -54032.114    
    208900   2733.7398     -2207.1363     -17139.631     -33236.256      3.2008297     -54062.98     
    209000   2834.9654     -4522.9389     -24137.551      187.80649      3.2132328     -54159.355    
    209100   3119.9973      29795.206      9796.8358      12170.189      3.2650192     -54301.503    
    209200   2829.7383      23317.639      15578.137      5808.1795      3.2868703     -54104.141    
    209300   3052.9572      16279.066      6311.6796     -6629.1231      3.1964443     -54150.77     
    209400   3090.3395      5510.2777      15865.435     -11965.495      3.2398613     -54100.262    
    209500   2752.37        14507.465      15368.253     -8123.9236      3.2469823     -53852.171    
    209600   3181.9113      31834.81       3891.071      -5767.0609      3.2615229     -54040.319    
    209700   3162.7581      7374.1571      3041.2455      17133.737      3.2802599     -54022.289    
    209800   2915.025       3972.8337      17222.025      3428.217       3.3170974     -53907.524    
    209900   2974.4754     -14394.343     -21228.033     -10277.557      3.253432      -53964.661    
    210000   3360.6195     -3996.8232      13803.059     -6251.2523      3.2389952     -54216.404    
    210100   3127.6821      20000.021      10208.275     -7549.991       3.3336005     -54132.232    
    210200   2923.6379      11334.604     -43008.05      -22041.429      3.1714586     -54084.371    
    210300   2888.4408      7851.5932     -32584.707     -34346.393      3.2466569     -54091.767    
    210400   3162.6028      23548.708     -16521.599      13547.593      3.3493564     -54257.714    
    210500   3035.1251      11933.936     -8029.7729     -11056.021      3.3123821     -54185.955    
    210600   3270.8021      8442.8214      6368.9048     -2560.5176      3.3227468     -54313.936    
    210700   2936.7912      18485.401      26427.073      18646.847      3.3874936     -54127.687    
    210800   2693.0139      21031.681     -497.46653     -36360.071      3.2793806     -53983.194    
    210900   2852.0124     -12555.581     -4965.4216     -9518.8362      3.3605394     -54044.221    
    211000   3058.9003     -1517.5243      4941.258       28806.231      3.3838321     -54064.557    
    211100   2976.9733     -31516.648     -23848.502      16882.417      3.2612154     -53837.794    
    211200   3366.3437     -1416.7097     -17588.087      7537.9433      3.3215411     -53926.67     
    211300   3477.309      -13609.322      10093.715     -22501.347      3.3559593     -53979.376    
    211400   3358.2116      8110.7021      8462.357       31015.456      3.4667083     -54026.193    
    211500   3177.6831     -7534.5006      28289.961      15517.47       3.4907486     -54028.324    
    211600   3254.6782     -27214.12      -35767.161     -27384.536      3.4501241     -54138.454    
    211700   3065.9075     -21787.441     -6410.5467     -6874.6313      3.4439761     -54091.02     
    211800   2963.1416     -1569.0096     -34570.025     -14395.255      3.3719256     -54097.956    
    211900   2735.9628     -12814.091      9132.1476      5162.7403      3.3435488     -54025.734    
    212000   3169.3515      6015.6405      12252.606      48992.627      3.4217785     -54287.135    
    212100   3016.6626      25717.118      8207.6578      41901.285      3.5250734     -54234.778    
    212200   2991.7878      28462.988      37938.706      3975.5346      3.4892291     -54297.27     
    212300   2861.6586      35557.38       301.48645      18718.88       3.451312      -54361.146    
    212400   2582.9556      35759.751      3140.4115     -9328.2378      3.3741903     -54318.99     
    212500   2974.0712      12677.596     -519.63123      6725.4017      3.5238793     -54561.131    
    212600   2673.4015     -27639.25      -9935.1972      11037.71       3.4071449     -54373.972    
    212700   2774.5695     -34155.339     -18622.15       9500.8099      3.4606253     -54376.8      
    212800   2806.6318      16238.401     -11425.924      65757.144      3.4930161     -54346.529    
    212900   2971.0067     -1935.7432      8693.4445      44141.543      3.5756164     -54355.856    
    213000   2967.8723     -41135.747      2726.3363      25875.862      3.4912773     -54309.099    
    213100   2937.7562     -9909.8327      20046.216      26386.425      3.4222169     -54231.383    
    213200   2948.0215      22519.474      15940.629      8470.0983      3.3236126     -54198.687    
    213300   2920.4723      12587.553     -4474.723       7873.2115      3.3816292     -54129.992    
    213400   3053.2226      7776.684      -2316.9849     -25005.598      3.433127      -54148.266    
    213500   3169.2641      5266.8798      10314.611      20112.004      3.5123248     -54169.942    
    213600   2907.7893     -31146.419     -26798.394     -27556.667      3.347157      -53950.741    
    213700   3102.3297     -12994.209     -27558.108      17969.556      3.3874108     -53954.395    
    213800   2895.7677     -4208.5463      3761.927       13633.965      3.3383291     -53757.66     
    213900   3091.1268      17011.12      -34061.849      15645.485      3.3029808     -53823.511    
    214000   3275.6387     -42494.214     -32273.143     -38564.906      3.2839861     -53885.773    
    214100   3273.7807     -32313.663      28470.979     -1769.3459      3.4356443     -53943.247    
    214200   2948.945      -42090.561      4.9250441      3301.3649      3.3000953     -53944.509    
    214300   3210.807      -51405.287     -10479.099     -19551.278      3.4073465     -54211.781    
    214400   2799.1331      6604.4637     -14204.757     -36519.851      3.3969861     -54042.257    
    214500   2904.5504     -26845.377     -8035.8521      9251.4247      3.3555671     -54120.937    
    214600   2943.2868      7545.6377     -424.53912      3511.795       3.4424697     -54153.661    
    214700   2893.3551     -5124.4608      7093.8774      52464.519      3.4313355     -54128.946    
    214800   2845.3072     -5819.4842      6192.0177     -523.65423      3.4918673     -54092.907    
    214900   2960.8191     -6424.5049     -32677.917     -15902.053      3.4284601     -54140.369    
    215000   3101.8826      7134.4089      36769.017      45280.904      3.5679715     -54226.619    
    215100   2810.8037      6489.485       22795.311     -7802.5599      3.4832125     -54087.451    
    215200   2941.3577      194.98292     -14461.018     -20744.669      3.44959       -54203.419    
    215300   2918.5425      17861.091      14749.383      52816.489      3.6069328     -54254.606    
    215400   3136.5256      19286.082     -15956.09      -11442.43       3.572889      -54459.203    
    215500   2803.7133      12415.817      28195.262      7353.6873      3.5131641     -54339.374    
    215600   2763.8931      53477.086      9346.3706      7680.4956      3.4831142     -54335.669    
    215700   2996.7609      28547.806      45041.756      10114.468      3.5806643     -54406.589    
    215800   2919.3476      14184.236      38083.517      13650.84       3.6295703     -54222.629    
    215900   3077.2077     -9608.5486     -1698.8392     -31538.636      3.4671909     -54205.781    
    216000   3341.6648     -19784.631     -34145.644      2046.1856      3.4917705     -54314.771    
    216100   2917.3648     -4735.9941     -36504.777      24547.547      3.3754264     -54082.022    
    216200   3124.6701      28798.602     -27152.812      18035.181      3.3953086     -54189.575    
    216300   3157.0366      1428.1285      40324.451      20340.585      3.4363249     -54211.937    
    216400   3096.1205      18054.83       19121.058      28186.308      3.4606322     -54178.611    
    216500   2957.4896      42447.501      12440.812      14525.205      3.5035396     -54124.86     
    216600   2955.2511      29003.626     -6218.0028     -7482.4572      3.3421738     -54186.709    
    216700   2841.875       486.71708     -64.53177      -2186.8356      3.3708379     -54225.886    
    216800   2824.5537     -1657.1983     -3633.8002     -24594.223      3.3627567     -54286.007    
    216900   3084.4186     -6510.9906     -20625.988     -16292.553      3.4581419     -54462.617    
    217000   2857.3131     -3949.9942      40843.259      8288.455       3.4534438     -54338.901    
    217100   3254.7548     -33471.896     -3728.5814     -15009.538      3.4847103     -54515.592    
    217200   2896.3723     -22783.725      569.85578      24686.191      3.4932785     -54227.787    
    217300   3056.1325     -34668.054      42198.572     -30588.585      3.4144895     -54182.675    
    217400   3088.0697     -29705.498     -9262.7442     -48522.834      3.3139364     -54106.75     
    217500   3012.6805      11715.73      -5443.2724      4105.1761      3.3730818     -54013.092    
    217600   3060.8815     -4991.2165     -6297.0239     -4982.9456      3.3024318     -54043.801    
    217700   3099.4362      9119.9493      40589.881     -8540.4197      3.3482553     -54102.298    
    217800   3072.644       3530.3329      35777.213     -13710.622      3.3644895     -54152.679    
    217900   3017.2932      2189.6168      1712.9119     -15436.532      3.4112536     -54216.336    
    218000   2876.3814      9765.9507      2669.6552     -6544.8831      3.4914129     -54270.44     
    218100   2681.9015      43554.245      14210.713      23631.25       3.4536406     -54275.183    
    218200   2692.2951      34570.599      31077.753     -2057.5851      3.3933008     -54321.031    
    218300   2527.2954      40688.166      25623.645      59351.845      3.4839007     -54214.577    
    218400   2694.9975     -8521.834       8727.0951      8201.1227      3.4245519     -54253.212    
    218500   2709.6873      14150.978      29140.153      24368.727      3.3573425     -54183.46     
    218600   3220.1945      21951.751      9501.9329      10551.362      3.3846918     -54397.788    
    218700   2823.8326     -19791.406      15164.662      6798.3544      3.3573934     -54113.276    
    218800   2902.5342     -30689.718      3164.2837     -30113.812      3.3174305     -54058.151    
    218900   3063.3617     -34956.742     -33410.152     -22887.903      3.2222851     -54076.566    
    219000   3023.0584     -14765.304     -3430.0996      151.58381      3.3188236     -54032.706    
    219100   3210.8863     -2549.1104     -17427.326     -34846.177      3.3060615     -54131.676    
    219200   3115.7845     -22373.799     -7248.4448     -23831.612      3.250153      -54107.372    
    219300   3120.0789      23520.914      22013.009      11453.704      3.3757911     -54185.376    
    219400   2930.9888      11188.045     -3166.2937      32967.666      3.4047773     -54231.052    
    219500   2722.952      -13579.062     -19565.642      3008.0075      3.3959179     -54245.709    
    219600   2905.8311     -5192.7873     -1374.6762      4838.1601      3.4305008     -54377.876    
    219700   2789.1856     -13046.459     -9681.7714     -16520.848      3.3850458     -54291.276    
    219800   2497.0461      3174.4658     -23514.712      14782.745      3.3927072     -54071.397    
    219900   2922.4282      27746.332     -6392.9579     -41467.022      3.3882099     -54222.334    
    220000   2606.1583     -18638.239     -12517.49      -34890.203      3.2745123     -53979.853    
    220100   2872.7137     -11246.84      -9048.0498     -7838.5192      3.3277643     -54038.496    
    220200   2968.8793      21926.766      7260.6958     -20142.039      3.3424229     -54041.373    
    220300   3102.1729     -2127.8981     -15147.48       21166.802      3.3429274     -54101.68     
    220400   2928.2444     -37154.486     -11751.511      12880.738      3.3369448     -54028.94     
    220500   3157.6384     -28446.253     -15074.424     -18871.428      3.3061563     -54178.312    
    220600   2906.0447     -3420.1384     -46763.476      4486.2256      3.3085129     -54073.791    
    220700   2983.6951      14474.706     -60126.87      -13094.889      3.3820352     -54187.522    
    220800   2798.6007     -25161.421     -21353.377      26.796739      3.3583889     -54216.666    
    220900   2940.4786      3087.8196      5452.5946      14635.286      3.5301904     -54404.37     
    221000   2807.9715     -12700.716     -9502.423       22545.734      3.4837992     -54357.883    
    221100   2773.1277      2592.2334      15069.249      29000.554      3.5168048     -54298.442    
    221200   2996.2293      12811.339      46520.945      14963.321      3.578364      -54365.229    
    221300   3026.8833      29202.789     -21952.185     -19378.237      3.5504883     -54346.566    
    221400   2958.5533     -11145.805     -22737.233     -13228.471      3.4401893     -54296.498    
    221500   2704.4107      14596.381     -5051.0571     -24629.826      3.4690497     -54133.067    
    221600   3064.3233     -18737.969     -13904.885     -30851.561      3.4964984     -54294.248    
    221700   2789.8053     -25063.544     -20662.202     -43110.428      3.3966119     -54102.103    
    221800   2901.0427      22935.7       -13973.123     -35200.416      3.5459986     -54127.764    
    221900   2883.6497     -3778.0771     -23767.521     -37796.785      3.4710567     -54123.96     
    222000   2973.6785      5885.5974      7755.568      -11454.374      3.515037      -54185.265    
    222100   2805.1476      10865.587      5151.7822     -9575.2867      3.5703055     -54120.822    
    222200   2768.8709     -17028.336     -25479.256     -38177.172      3.3958257     -54106.988    
    222300   2947.1135      3709.6013      6509.6229      5864.959       3.4503764     -54189.69     
    222400   2976.4516      50299.901      33577.258     -2684.6671      3.5980964     -54166.458    
    222500   3099.1951     -11171.591     -23435.415     -25417.124      3.4521457     -54196.112    
    222600   3172.5386      3488.2847     -14682.098      30579.255      3.5475013     -54211.487    
    222700   3118.681      -2993.5371     -12426.433      44598.295      3.5092192     -54180.392    
    222800   2994.1039      21998.331      19022.89       34709.602      3.5018554     -54107.431    
    222900   3152.0403      49118.392      13914.748      15963.687      3.5525416     -54268.511    
    223000   2944.5467      30661.113     -20516.312     -15669.848      3.4741769     -54306.13     
    223100   2767.0126     -835.69392     -41474.25      -11837.394      3.464819      -54320.35     
    223200   2741.8222     -37429.705     -5127.3665      24906.193      3.3925328     -54324.385    
    223300   2688.5524      2945.6365     -13203.034      12803.905      3.4359119     -54249.348    
    223400   2869.7831     -5362.6037      24117.697      42508.961      3.5424588     -54263.552    
    223500   2884.3826     -16737.671      24375.389      6444.4852      3.4108359     -54195.002    
    223600   3135.3858     -35967.389     -29576.047     -18467.981      3.3581318     -54264.319    
    223700   2984.5401      2484.2321     -22860.416     -4835.7923      3.4583993     -54134.823    
    223800   3143.056       15195.354     -7333.7362      4407.133       3.3659491     -54204.957    
    223900   3138.0364      72806.333      17626.801      38917.972      3.4527216     -54182.733    
    224000   3035.5338      29742.608      29818.744      39893.827      3.4990836     -54135.778    
    224100   3027.0505      49505.511      45311.175      31538.843      3.5781974     -54193.337    
    224200   2955.7767      3343.3989      23017.989      18510.81       3.4878198     -54246.119    
    224300   2794.2415     -9618.2096     -18987.368      4398.8098      3.3590589     -54187.083    
    224400   2905.6797     -17492.516     -4991.7536      17840.858      3.4362606     -54235.74     
    224500   2780.566       10427.42       24670.959      26584.361      3.4341436     -54156.56     
    224600   2955.2619     -3817.7257     -15546.387      35084.212      3.408231      -54214.45     
    224700   2708.3093      2633.3664     -26473.342     -34948.607      3.3564819     -54014.046    
    224800   3013.2387     -23431.349     -26653.014     -16798.917      3.3102083     -54106.951    
    224900   3150.5349      3109.0986     -25411.763      7789.4304      3.4008267     -54133.473    
    225000   2879.3312      8828.1164     -23614.244      25451.331      3.4282687     -53964.345    
    225100   3025.7876      33009.511     -3627.5162     -2945.053       3.4603831     -54054.494    
    225200   3003.0826     -15000.981      9825.3474     -2535.535       3.4951772     -54096.214    
    225300   2568.3178     -39215.438      2233.3282      22655.498      3.4464512     -53962.458    
    225400   2714.8113      7231.8458     -2140.6568     -7737.4057      3.4866352     -54174.078    
    225500   2824.3277     -17437.448      23489.385      8119.966       3.4752156     -54273.402    
    225600   2619.239      -18181.314     -17669.663     -20971.857      3.3481224     -54165.281    
    225700   3022.1999     -5015.6626     -27707.66      -34777.231      3.4013751     -54307.259    
    225800   3023.7774     -7888.243      -21147.194     -8442.6817      3.3672392     -54190.812    
    225900   3098.0581     -20841.785     -36250.444     -18431.665      3.3384916     -54138.907    
    226000   2999.1919     -336.02385      14440.008     -35702.024      3.3841783     -54063.07     
    226100   3059.9149      32297.255      10324.95      -25115.633      3.3579307     -54085.285    
    226200   2953.7113      44838.957     -18304.729     -10026.194      3.4116757     -54024.826    
    226300   3216.5143     -8078.3529     -32911.139     -28782.328      3.3116727     -54182.32     
    226400   3187.3009     -10147.647      9349.5738      17107.775      3.2924341     -54194.147    
    226500   3020.1881      18469.759      21694.718      269.24825      3.3246785     -54165.878    
    226600   2900.4159      19781.068      23937.714     -3899.5443      3.3346093     -54214.803    
    226700   3035.8892      21762.697      32792.733      8264.3876      3.4260096     -54404.998    
    226800   2724.3402      37561.01       31439.077     -3276.4513      3.3604761     -54293.571    
    226900   2855.3276      8625.5586      12151.061     -7210.9904      3.3602469     -54360.258    
    227000   2563.7092     -25590.861     -18416.556     -19177.655      3.2779686     -54123.959    
    227100   2901.3006     -10616.642     -39356.076     -26950.337      3.3980004     -54229.693    
    227200   2916.8509     -4899.4893     -19973.705      7286.818       3.4005096     -54192.662    
    227300   2945.3579      5771.5172     -1051.3225     -628.01225      3.4345796     -54184.037    
    227400   3082.4433     -15363.5       -17214.782     -19172.392      3.4857895     -54230.338    
    227500   2733.6386      28988.901     -39672.703     -17629.56       3.4822244     -54034.843    
    227600   2955.6313      7928.4541      3434.6256     -36573.026      3.4874109     -54141.127    
    227700   3240.9974      3622.1209      13556.491      9310.6617      3.4116741     -54268.549    
    227800   3133.8518      22326.801      9874.3367      2196.7877      3.3962165     -54187.971    
    227900   2944.5756     -27678.105      659.73206      1003.7253      3.3072782     -54085.261    
    228000   2914.5818     -15747.591      2299.7533     -8291.3626      3.3034685     -54031.034    
    228100   2911.228      -15104.037     -25042.715     -1372.283       3.3416509     -53963.793    
    228200   3115.4886     -38649.935     -32150.051     -26277.617      3.191386      -54025.268    
    228300   2969.382      -14976.507     -41722.544      14058.301      3.2801203     -53910.749    
    228400   3110.7403      1050.6631     -21107.799     -2547.1086      3.3548664     -53997.047    
    228500   3212.6832     -33057.046     -26851.329      15645.653      3.2614323     -54133.85     
    228600   3339.471      -968.12444      16379.815      58674.336      3.4752232     -54334.839    
    228700   3003.1925      29958.763      20069.535      51534.798      3.4830428     -54258.09     
    228800   3048.872       22736.695      5279.0735     -17319.072      3.3831572     -54339.474    
    228900   2973.9051     -8224.2927     -8914.2518     -13639.588      3.3681694     -54332.007    
    229000   2994.7405      22240.725      4857.2639     -3820.5146      3.461372      -54341.609    
    229100   2820.8408      12144.743     -2707.8653     -6253.3077      3.3974278     -54201.712    
    229200   2938.025      -16172.185     -31331.129      3923.9185      3.3448094     -54191.066    
    229300   2913.6071      9664.5115     -38315.737     -38507.947      3.3460273     -54066.508    
    229400   3179.9642      5375.9528     -9222.7315      4201.769       3.4206039     -54113.967    
    229500   2949.9879     -13356.863     -22914.442     -11838.847      3.3757412     -53930.492    
    229600   3084.8873     -27513.242      6177.5501     -3398.5382      3.4920874     -53996.662    
    229700   3062.7863      7322.8337      27965.402      4802.8104      3.3912952     -54018.257    
    229800   3112.5604     -3102.963       19471.718     -1876.1065      3.3670149     -54101.448    
    229900   3349.8224     -18415.692     -22357.086      7039.6185      3.4150334     -54278.311    
    230000   2882.6427      43246.016      2116.7534      36682.518      3.4817269     -54078.184    
    230100   2850.975       2858.928      -10836.285      2878.6139      3.3428116     -54111.3      
    230200   3049.9973     -11955.462     -13614.622      3453.3417      3.4291011     -54245.189    
    230300   3104.6946     -426.24773      17368.93      -10871.261      3.4385241     -54300.576    
    230400   2844.5374      23584.448     -18538.427      4953.903       3.5021188     -54189.759    
    230500   3026.6176      16007.073      215.25921      34009.597      3.541598      -54336.59     
    230600   2882.5999      17264.301      14394.888      33841.466      3.5714601     -54331.708    
    230700   3017.5869      48239.078      12676.214      16785.424      3.6336207     -54482.83     
    230800   3046.0461      18725.833      35135.779      5769.0042      3.6278093     -54546.641    
    230900   2714.5016      15790.393     -15276.82      -17163.442      3.4543355     -54397.897    
    231000   2845.0469     -4138.3409     -16150.105     -24587.132      3.4898432     -54451.411    
    231100   3002.5655      24416.857     -5008.6626     -18461.584      3.5844907     -54433.473    
    231200   3146.3269      20167.278      16128.443      5659.6024      3.5202699     -54391.372    
    231300   3383.634       1280.777       12019.879     -4978.8081      3.5294927     -54456.255    
    231400   2907.7478     -10590.6       -10851.502     -45480.816      3.3795925     -54154.182    
    231500   3005.6766      32504.797     -19321.529     -44009.294      3.4733406     -54176.421    
    231600   3053.5113      29143.753     -21809.51       25274.02       3.4737888     -54187.233    
    231700   2973.5894     -10024.948     -19634.672     -1741.3906      3.3856183     -54159.854    
    231800   2941.2653     -21383.208     -8648.9918     -28189.721      3.4341182     -54188.268    
    231900   2968.5943     -19364.962      1801.0797     -26699.054      3.5048561     -54274.29     
    232000   3076.3123     -5222.3439      1016.9913      1462.8901      3.4518571     -54455.347    
    232100   2760.4953      30761.831      58667.009      23107.585      3.6117604     -54427.618    
    232200   2920.8757      31862.838      9439.3945     -14031.02       3.5911619     -54569.175    
    232300   2656.545       15894.821      18171.161      24689.843      3.5005471     -54418.981    
    232400   3000.9762     -19271.572     -513.5123      -15490.176      3.4591633     -54555.545    
    232500   2893.9894     -32391.309      37915.923     -52832.376      3.4091412     -54435.474    
    232600   2698.4316     -11745.059     -22161.632      6002.9923      3.3856604     -54282.204    
    232700   2998.4269     -2764.5545     -4520.4521     -12994.494      3.4583859     -54366.04     
    232800   2804.9022     -1986.434       32552.161      55945.179      3.4996187     -54212.639    
    232900   2989.9303     -4819.1657     -11372.684      14754.078      3.4048887     -54279.365    
    233000   2807.2294     -18161.444     -20890.364      16398.123      3.4397554     -54153.01     
    233100   2880.5752     -29642.003     -25265.727      12270.126      3.4825021     -54139.706    
    233200   2978.9404     -65028.799     -41072.702     -14793.217      3.3627099     -54151.49     
    233300   3024.8153     -30410.523     -28216.025     -18670.161      3.3310902     -54161.301    
    233400   3081.9484     -16552.461      8904.7703     -4852.4616      3.3822483     -54155.735    
    233500   3183.2329     -1038.0302      47981.882      3439.9808      3.4468224     -54103.655    
    233600   3345.057       8739.699       29199.724      6360.5845      3.4609868     -54001.381    
    233700   3292.3543     -27047.244     -23527.318     -27202.137      3.2616779     -53909.667    
    233800   3399.1492     -7853.3803     -9023.9727     -4824.4876      3.3712954     -54021.742    
    233900   3290.523      -28997.598      7531.3646     -20489.493      3.2740081     -54060.7      
    234000   2952.7946      12546.68      -8833.9252     -2557.2094      3.2746182     -53960.737    
    234100   2880.3451     -13211.3        3936.27        6136.6524      3.2977863     -53975.319    
    234200   3266.0305      3346.0054     -19989.911     -13252.531      3.3297756     -54227.982    
    234300   2953.0407     -3854.5962      17152.25       37047.821      3.4041726     -54105.758    
    234400   2917.7127     -21375.967     -12761.616     -2136.9601      3.3524587     -54129.211    
    234500   2711.0417      1894.2833     -18815.917     -29512.996      3.241241      -54050.211    
    234600   2927.6768     -5803.135      -3340.21       -2183.4968      3.3330775     -54208.469    
    234700   2779.8295     -20432.873     -32584.984     -6579.5323      3.2960845     -54180.845    
    234800   2931.6205     -39607.381      5070.2526      22496.141      3.3818503     -54305.576    
    234900   2651.7751      6772.4117     -20592.229      393.48004      3.4009749     -54168.364    
    235000   2713.1491     -12801.27      -12797.471     -9851.4981      3.4160496     -54147.269    
    235100   2956.9749      11387.109      25926.536      31917.235      3.459274      -54172.416    
    235200   3230.815      -6276.209       24009.279      29860.824      3.3967285     -54211.144    
    235300   3288.3296     -15334.897      4817.9092      20777.325      3.4049827     -54188.139    
    235400   3277.8264     -8338.8797      19926.579     -7194.421       3.3480738     -54174.029    
    235500   3050.0966      18835.365     -15672.364     -3826.2658      3.40399       -54061.492    
    235600   3277.6778      43714.901      13721.723      27567.671      3.511276      -54228.972    
    235700   2961.6722      7395.4656      12626.982     -10192.66       3.3922545     -54149.068    
    235800   3055.5686      25224.879     -13304.507      814.35505      3.454146      -54343.69     
    235900   2817.2026     -4896.5623      9188.8072     -7693.3921      3.4131692     -54305.566    
    236000   3272.1519      29467.333     -26934.826     -27356.919      3.5189611     -54579.92     
    236100   2891.0252     -1290.3492      19655.573     -30982.511      3.5485392     -54350.794    
    236200   2891.1704     -17819.05       1453.9995     -22163.648      3.401451      -54328.673    
    236300   2826.4807      39913.522      9934.6266     -4749.2041      3.5150985     -54244.493    
    236400   3027.9733      41506.211      18491.726      2915.3685      3.503528      -54283.967    
    236500   3108.8237     -2756.5508     -1099.2169     -49332.398      3.350913      -54240.147    
    236600   3113.6818     -19325.931      16990.886      11594.867      3.4363969     -54162.517    
    236700   3170.0565      17436.679      23137.672     -13366.607      3.374877      -54141.748    
    236800   3342.2457      26828.233     -175.50592     -18.94534       3.3815481     -54178.461    
    236900   3212.4576      10506.495      45759.721      11163.305      3.3876809     -54099.029    
    237000   3124.8185      37206.717     -8145.5893     -11011.295      3.3826136     -54051.042    
    237100   2925.6608     -30234.17      -58.469553     -19043.057      3.320725      -53992.739    
    237200   3056.8159     -10259.121      4107.3901      16538.593      3.3764579     -54119.54     
    237300   2962.0145      826.51608     -3357.2408      40644.369      3.3794336     -54107.209    
    237400   2831.0371     -14162.054      24189.24       26129.435      3.3688362     -54052.017    
    237500   3134.9509      17405.69      -4894.7749     -9153.2215      3.3804658     -54233.339    
    237600   2716.4814     -31384.667     -43442.438     -8321.8593      3.2609873     -54002.369    
    237700   2711.736      -15929.012     -28313.262     -4751.125       3.296784      -53977.388    
    237800   3153.4123     -9033.5296     -1390.8556      10673.368      3.3386523     -54160.618    
    237900   2999.9758      2575.1734      8674.5248      7018.6496      3.3225028     -54025.016    
    238000   3069.1646     -16662.747     -17136.736     -7113.6522      3.3289639     -54040.632    
    238100   3145.7633     -3462.1398     -16270.022     -18620.917      3.3259992     -54070.593    
    238200   3064.4603     -1807.7785     -27350.597     -3563.8447      3.351249      -54021.133    
    238300   2882.227      -31818.146     -53754.678     -38082.499      3.219963      -53961.827    
    238400   2860.4089     -21.629811      13742.885     -14535.462      3.4151858     -54016.546    
    238500   3147.2337      33914.836     -1790.9855      13107.137      3.4660546     -54246.22     
    238600   2748.555       13227.593      37172.049      5184.5533      3.4669194     -54106.759    
    238700   2920.9753      32719.699      14951.028     -8236.5692      3.459792      -54253.251    
    238800   3051.9956      46455.449      30955.992     -11059.623      3.4790496     -54351.037    
    238900   2947.5307      1523.7467     -8974.7947     -36357.285      3.3467677     -54296.736    
    239000   2621.0676     -7602.7066      4856.6324     -212.02445      3.3832717     -54061.255    
    239100   3065.7566      8020.7806     -7048.9553     -12477.858      3.418343      -54172.22     
    239200   3151.6291      43138.578     -22670.08       35674.901      3.4235817     -54113.007    
    239300   2935.7926     -4179.6396     -10495.314      9341.4387      3.3068009     -53954.077    
    239400   3248.4243      12020.723     -74.917027      12072.356      3.4211684     -54102.074    
    239500   3089.9777      19636.243     -23651.912      17271.079      3.3491953     -54035.151    
    239600   2870.3176     -1943.5033      3515.332      -3532.4566      3.4014198     -53986.622    
    239700   3048.0909     -9778.8472     -8841.8826     -1369.5612      3.3946035     -54212.6      
    239800   2721.9204      14388.697      16608.065      11368.767      3.4705736     -54147.674    
    239900   3206.6296     -5540.9334      5258.1441      3001.363       3.5192649     -54446.954    
    240000   3138.2915      15884.503     -14074.339      8841.3308      3.5777541     -54427.935    
    240100   3079.5351     -3575.7556      10712.093     -3809.4623      3.5492038     -54388.788    
    240200   2970.9462     -14818.167      33453.36       28372.01       3.5001455     -54321.447    
    240300   3008.4568      28215.215      9857.0186      51215.465      3.5001373     -54296.086    
    240400   3115.0868      10887.198      18951.227      33949.95       3.4987866     -54310.207    
    240500   3090.1253      15337.694     -2134.114       6143.6782      3.4234743     -54214.24     
    240600   3149.0043      27405.634      7388.3283      16871.263      3.4621808     -54122.039    
    240700   3434.5982      33157.193     -8619.0383      11042.038      3.402967      -54170.945    
    240800   3138.8413      16968.488      135.96112      21241.257      3.3935559     -53968.011    
    240900   3341.6529     -8309.2805     -11576.563     -11871.474      3.3917143     -54133.692    
    241000   3119.1888      15286.975      21526.5       -1721.6591      3.3525806     -54090.073    
    241100   3080.905       10719.793      31111.23       10688.706      3.3793582     -54144.782    
    241200   3236.5678     -11534.816      25607.217      124.43569      3.4607149     -54265.484    
    241300   2974.7926     -9937.2569      5936.1538      8188.6736      3.4551172     -54153.978    
    241400   3358.513       14746.191      12053.424     -5247.0781      3.4895933     -54428.096    
    241500   2970.9294      37225.791      9039.5354      22960.928      3.4590538     -54283.362    
    241600   2727.8252      1390.0449     -17958.046      46474.748      3.4986817     -54198.915    
    241700   2996.2944      11602.785      26815.314      13371.062      3.4886191     -54349.201    
    241800   2920.0015     -15057.791      8540.2605     -4126.5006      3.4639813     -54294.508    
    241900   3033.1246      1365.3897      36478.086      4425.7134      3.5080773     -54312.206    
    242000   3132.5836     -4453.6657      71711.397     -119.52176      3.4897338     -54230.013    
    242100   3463.2985     -16459.793     -7090.4863      40512.66       3.455778      -54201.818    
    242200   3401.7249     -22136.501     -23778.429     -29955.017      3.3237646     -54111.12     
    242300   2818.2644      45555.559      12689.065     -16528.69       3.343934      -53807.12     
    242400   3045.8562      25923.934     -12901.537      29660.64       3.3141857     -53981.016    
    242500   2897.8201      19074.635      2380.1535     -20928.491      3.398947      -54000.588    
    242600   2809.949      -22627.801     -7570.7126     -11352.843      3.3617635     -54052.312    
    242700   3259.793       12743.869     -9766.3647     -17579.684      3.4601493     -54358.644    
    242800   3040.4558      5101.376      -24131.716     -4022.3411      3.4967912     -54283.89     
    242900   3014.6587      12257.79       11217.596      9898.2249      3.5490676     -54306.485    
    243000   3007.4667      24336.252      29462.885      34599.537      3.5862693     -54321.107    
    243100   2854.0409      1372.7284      16271.171      40086.961      3.5672901     -54264.693    
    243200   2891.9729     -11672.928     -18762.661     -11508.234      3.4920485     -54304.584    
    243300   2940.1135     -21270.583      10107.193     -18349.933      3.5219962     -54340.68     
    243400   2790.4661     -15122.392      769.99152     -31488.778      3.4593604     -54272.444    
    243500   2955.9384     -3351.5106      20182.645     -16761.175      3.5525506     -54365.409    
    243600   2914.6704     -30054.96       13524.742     -9204.7167      3.480794      -54316.369    
    243700   2955.6369     -5670.3185     -10066.837     -30583.478      3.4317372     -54279.398    
    243800   3104.5358     -6232.1742     -25277.124      15920.316      3.5194957     -54303.097    
    243900   3104.1225      7484.1907     -4276.1777      12746.969      3.564144      -54265.097    
    244000   3031.8441      4221.1616      2401.0248      18563.008      3.582565      -54203.013    
    244100   3140.6883      33741.71      -20022.834      20181.045      3.588099      -54246.992    
    244200   3319.1757      5201.8804      38666.821      16163.214      3.5473155     -54330.711    
    244300   3143.3203      65991.335      30085.042      29475.31       3.485562      -54245.071    
    244400   2865.9331      6595.2164      9212.1647      12738.979      3.4173721     -54148.579    
    244500   3009.776       1670.7997      13761.191      25264.668      3.4698592     -54265.169    
    244600   3016.1472      16882.587      54395.013      14925.076      3.617506      -54338.152    
    244700   2657.8352      28619.136      10012.714      49358.379      3.6190622     -54223.684    
    244800   2696.8693      7352.4856      18437.534     -8849.5708      3.5972052     -54294.846    
    244900   2675.3861     -7916.464       4241.2416      21344.334      3.6118403     -54296.333    
    245000   3011.7894      6429.2426     -16049.601     -1412.0807      3.5132578     -54444.782    
    245100   2863.1696     -6161.4011      47273.774      13131.932      3.5049079     -54261.497    
    245200   2984.3498      2455.0737     -7736.4989      5247.2825      3.3860103     -54185.522    
    245300   3120.0996     -437.9429       15797.376     -16034.439      3.4566801     -54167.07     
    245400   3097.3505      5017.3386     -28379.623      5487.8765      3.3804021     -54115.108    
    245500   2965.2292     -18851.707      4821.3264     -7879.9269      3.4091577     -54048.701    
    245600   2869.5508     -17471.437     -6498.7314      1230.5336      3.2864187     -54008.661    
    245700   2988.8169      37122.951     -26414.08       44554.739      3.3831115     -54077.308    
    245800   2964.5068      777.3525       940.23883      17159.303      3.3197248     -54065.013    
    245900   3032.8581     -2274.2497      24889.391      51531.293      3.3949891     -54073.426    
    246000   3182.662      -14890.276     -27405.941     -23188.901      3.2836831     -54060.285    
    246100   3421.2315     -10453.489      1054.8827     -18620.46       3.3614551     -54087.721    
    246200   3101.1984     -19229.16       504.6698       4326.5428      3.3236968     -53846.543    
    246300   3075.5602     -7557.2422     -9298.0246      14310.064      3.2823022     -53804.449    
    246400   3278.3239      13026.762     -24812.543      11800.819      3.3989061     -53955.103    
    246500   3182.7923      51674.362     -6958.9465     -12760.553      3.4236466     -54005.667    
    246600   2819.6942      7783.4997      21175.931      14839.301      3.3902171     -53944.742    
    246700   2870.9102      14437.291      13205.337      17390.289      3.3877346     -54040.716    
    246800   3169.4955      34789.099     -387.25098      9174.514       3.5041831     -54229.206    
    246900   3076.9119      6481.0619     -6039.5291      19457.883      3.5114493     -54215.509    
    247000   3229.363       851.13305     -4896.7639     -55283.026      3.3402096     -54371.175    
    247100   3107.3233      12724.179      23448.194      10538.862      3.4572854     -54355.801    
    247200   2954.0829      20106.313      1547.0326      33537.259      3.4684453     -54307.78     
    247300   2934.1223      23386.067      13049.835     -2590.7028      3.5264883     -54281.222    
    247400   3192.8933      11322.298      26486.701     -9744.2115      3.4707048     -54367.797    
    247500   3029.3764     -26177.056     -1287.0324     -26862.532      3.3715808     -54178.485    
    247600   3280.6205     -8743.8584     -9817.3924     -26710.034      3.4176713     -54127.775    
    247700   3032.0822      19522.428      38152.539     -14756.308      3.3716983     -53895.948    
    247800   3363.3314      32168.354      29760.23       21367.027      3.433105      -54087.272    
    247900   3322.3911      38559.208      33724.106      36968.534      3.4135432     -54130.03     
    248000   2948.267       2600.6492      18619.971      15944.601      3.268846      -54015.222    
    248100   3389.6        -18729.482     -21066.97      -12710.643      3.3300861     -54339.943    
    248200   2841.6005     -11137.505     -3951.826      -24154.118      3.3322298     -54094.58     
    248300   2949.2564      6342.7626     -22359.547      22338.421      3.3814393     -54182.475    
    248400   2795.2544     -5684.1601      19020.558     -35266.426      3.3531628     -54090.487    
    248500   3129.8258      39042.772      48413.523      22274.036      3.5729862     -54230.204    
    248600   3067.3492     -1683.2599     -18464.078      17360.733      3.489658      -54158.961    
    248700   3328.1174      3994.8471     -8713.2651      796.71321      3.506387      -54200.587    
    248800   3122.338      -1899.1229      21574.049     -17995.799      3.4513915     -53935.497    
    248900   3516.0843     -10063.552     -31915.597      13849.22       3.4260295     -54046.478    
    249000   3283.8493     -18481.243     -45771.949     -27342.696      3.3497158     -53920.513    
    249100   3033.2956     -35410.867     -31345.299     -50787.561      3.3113425     -53887.523    
    249200   3148.6928     -48772.382      11497.74       7775.7816      3.3854145     -54110.559    
    249300   3125.3658     -2815.5876     -510.77721     -8055.6799      3.4005193     -54182.101    
    249400   2822.7673     -33975.622     -17269.757     -20627.788      3.2952171     -54050.8      
    249500   2761.8747     -29803.843      10946.603      14990.333      3.3965391     -54019.459    
    249600   3184.3821     -341.13878      11506.212     -762.28107      3.4099575     -54227.721    
    249700   2972.157       5648.1059     -16287.078      360.30417      3.3907834     -54075.49     
    249800   2928.2164      35414.988      23593.357      43510.23       3.4534708     -54020.809    
    249900   2986.0466      9355.8341     -10854.746      37151.629      3.3471238     -54024.822    
    250000   3003.0901     -14507.327      4131.4033      19789.209      3.3381846     -54014.616    
    250100   2971.9034     -43713.222     -8480.5042      9431.4502      3.3868362     -53983.743    
    250200   3121.5558     -23519.313     -5845.0934     -2733.4316      3.4275724     -54046.317    
    250300   3100.5654     -37513.634     -37000.651     -25195.568      3.3112912     -54041.456    
    250400   3230.8705      5618.2305      9071.5335      14843.497      3.5210346     -54170.626    
    250500   3207.9519      12130.443     -10405.339     -5575.4021      3.4690865     -54261.366    
    250600   2676.1135      27643.772      34827.92       9162.4126      3.5069625     -54071.87     
    250700   2709.9205      27482.88      -3212.0918     -7199.7773      3.448066      -54138.8      
    250800   3005.3008     -26505.517     -25702.727     -32257.2        3.4390012     -54323.857    
    250900   3180.9878      668.11881      26101.805     -2362.1944      3.4846983     -54415.656    
    251000   2989.7053      12583.711      22005.447     -15199.892      3.401138      -54286.63     
    251100   3199.8538      3681.6688      47515.488      21807.477      3.5036776     -54290.148    
    251200   2988.9556     -23555.084      3215.9141      14892.708      3.4286963     -54002.98     
    251300   3040.4625      1821.9473     -24387.983     -22881.825      3.3464298     -53953.544    
    251400   3160.2623      1826.1662      46510.493     -1094.4791      3.4168809     -53992.351    
    251500   2926.7946     -10733.122      18431.122     -17532.324      3.276645      -53897.915    
    251600   3147.296      -35042.005      1898.962      -36606.641      3.3024872     -54105.488    
    251700   2926.6935      1220.2445     -12008.403     -12162.23       3.3725195     -54085.265    
    251800   2779.1732      8223.3767      9313.7821      13415.8        3.3715446     -54056.451    
    251900   3082.6646      4975.3934      35806.403      12700.559      3.3652933     -54246.036    
    252000   2947.5176     -7041.0004      7818.9683     -1086.393       3.3342877     -54182.251    
    252100   2940.8863      19443.886     -28918.965     -25584.894      3.348824      -54168.42     
    252200   2812.4798     -24330.51      -25467.363     -51294.681      3.3103925     -54074.878    
    252300   2963.6448      4332.381      -21961.012      20076.109      3.4769162     -54075.54     
    252400   3330.1747      30955.913      27027.38       15571.907      3.445227      -54108.72     
    252500   3326.3299      14629.71       19597.324      9369.2679      3.4094079     -53947.538    
    252600   3304.1749     -19869.31       3515.9406     -6976.279       3.4110738     -53920.443    
    252700   3297.8311     -6047.1662     -20483.259     -38662.436      3.3962449     -53977.703    
    252800   3093.3699      15923.966     -52948.248     -7788.7628      3.3185706     -53946.708    
    252900   3230.5984      5952.4319     -23044.383     -24331.59       3.4354409     -54109.836    
    253000   3073.6301      13902.939      8358.9342     -7285.9226      3.4033678     -54073.181    
    253100   3164.2186      29590.698     -408.49183      17577.047      3.4583431     -54153.259    
    253200   3167.9315     -590.57803      8687.7359      11797.754      3.5023929     -54208.022    
    253300   2873.9027     -24838.03      -8505.3423     -47591.665      3.420047      -54104.517    
    253400   2882.5051      29632.496     -5652.8111     -8062.4431      3.5173507     -54144.476    
    253500   3003.1392      61613.859     -12786.419      48528.021      3.4872499     -54210.609    
    253600   3041.7293      42541.234      28557.041      33721.73       3.5146759     -54203.998    
    253700   3072.0914      33449.785     -6648.9003      4473.9138      3.5781936     -54206.016    
    253800   2653.9433     -2715.6268     -17033.212      28261.193      3.5082955     -54017.659    
    253900   3056.7737     -7198.6003     -5251.6679      13857.258      3.4662903     -54266.081    
    254000   2937.655       21348.099     -29863.107     -2442.9115      3.4620404     -54232.864    
    254100   3017.9434      20159.735     -8779.012       5838.7166      3.5343708     -54281.357    
    254200   2940.0391      6836.8099      9068.2825     -12317.177      3.5802239     -54214.963    
    254300   2927.1624      5077.3394      37603.3        13947.069      3.5628849     -54149.136    
    254400   3028.1319      31230.987      21652.741     -24638.688      3.5493452     -54112.052    
    254500   2966.5196     -35751.671      16776.095     -16676.751      3.4831615     -53993.458    
    254600   3083.7736      17711.127     -8165.8333     -2160.0339      3.430641      -54014.258    
    254700   3190.2015      18082.214     -4531.1518     -549.95096      3.4228836     -54041.844    
    254800   2904.4179     -12802.735      6227.136      -50340.84       3.3468669     -53913.386    
    254900   2968.5975     -45861.173     -28733.83      -29555.454      3.2633601     -54062.401    
    255000   2853.3939      5654.7047     -2509.7027     -18644.513      3.3814437     -54134.283    
    255100   2951.4011      21010.127      60792.74       31880.673      3.5141609     -54238.128    
    255200   2821.0228     -11786.788     -31364.195     -18068.095      3.3827425     -54172.427    
    255300   2619.0446     -36858.702     -21112.291     -20101.862      3.3240893     -53998.165    
    255400   3034.8304     -34864.991     -20129.918      3027.3195      3.3251738     -54153.497    
    255500   2839.1643     -29381.813     -27287.053     -10219.567      3.2506757     -53992.732    
    255600   2911.0198     -12970.954     -8002.0172     -36933.473      3.233899      -53987.2      
    255700   3012.97        4889.2218      6883.1448     -7613.1616      3.2687717     -53991.21     
    255800   3161.4602     -5392.6686      59029.914      17097.932      3.3392125     -54049.718    
    255900   3218.7281      20506.245     -26343.134      20317.45       3.328065      -54069.195    
    256000   2968.8379     -7158.84        5133.5715      13567.984      3.2985264     -53949.045    
    256100   2951.5208     -1289.5672      7960.1457     -6998.7529      3.2743941     -53979.715    
    256200   2993.4281     -11391.858      20237.737      22460.812      3.3727927     -54057.396    
    256300   3018.809       14812.172     -15738.987     -8905.8636      3.3305976     -54165.115    
    256400   2888.9932      10807.365     -18609.527     -14771.328      3.34831       -54229.673    
    256500   2686.117      -22291.92      -10023.717      8511.258       3.4463637     -54226.616    
    256600   2807.1145      32480.276      8466.6507      51716.867      3.5223261     -54315.091    
    256700   2888.3934     -34316.561      12402.593      59152.43       3.4718086     -54327.266    
    256800   2743.0986     -605.27907     -25930.553     -20236.81       3.4284231     -54188.93     
    256900   2835.4372      12584.027     -14995.876     -6520.282       3.3652109     -54180.44     
    257000   3103.9052      13326.55      -16613.051      13891.482      3.426743      -54276.706    
    257100   3077.9877     -23171.687      21389.119     -11323.391      3.4037121     -54265.851    
    257200   2907.3107      6956.271       11.32465       7464.1366      3.4793689     -54138.109    
    257300   2887.8633      2242.9174      17373.733     -7377.152       3.4274369     -54142.226    
    257400   3041.3013      4010.6869      32399.251     -21083.515      3.4635788     -54213.806    
    257500   3001.676       20340.399      4226.9972      22510.561      3.4877662     -54193.345    
    257600   3100.3056      11227.789      7715.9207      13989.419      3.4662728     -54322.12     
    257700   2819.1285      596.10726     -40856.217     -8739.3752      3.3785953     -54299.646    
    257800   2814.8761      8566.5027     -9111.8603     -15834.134      3.4707885     -54384.901    
    257900   2727.5393     -33167.742     -28580.803     -30192.14       3.4080673     -54343.503    
    258000   2639.7664      14565.182      3491.5841     -20539.318      3.3902692     -54235.038    
    258100   2693.8212      5591.0228     -4870.7444     -7536.8829      3.3606832     -54151.326    
    258200   2896.6354      437.59635     -31810.381     -15012.352      3.2645796     -54174.96     
    258300   2818.6394      12921.467      2489.2234     -17647.475      3.2695337     -54078.403    
    258400   3100.2655      520.512       -6726.1147     -15555.04       3.3458966     -54182.813    
    258500   3004.8068     -9897.8175     -41941.443      4519.0866      3.3017223     -54112.136    
    258600   3029.2962     -7459.9881     -13608.448     -29567.795      3.2801919     -54066.656    
    258700   2893.0087      4258.0363      5099.0723     -13053.405      3.2817544     -53915.641    
    258800   3183.9312      17423.027     -21873.728      987.62152      3.3613365     -54004.182    
    258900   3423.4341      21187.005      21917.838      4123.1469      3.3571763     -54093.742    
    259000   2870.822      -3249.8682     -17673.887      453.41246      3.318071      -53797.921    
    259100   3061.1441      20958.402      26178.519      23056.574      3.4874807     -53990.585    
    259200   2941.2047      5301.3088      20715.269      28664.833      3.4954117     -54099.203    
    259300   2773.2663      17684.682     -7336.295       2746.4732      3.4741068     -54131.218    
    259400   2964.9714     -29040.215      8231.7881     -34781.447      3.4621716     -54287.932    
    259500   2721.6096      1953.0327     -30660.752      29401.949      3.4869536     -54164.703    
    259600   2876.2881     -14033.309     -6725.2094      14711.475      3.3228836     -54208.278    
    259700   3166.0887      17230.15       21762.082      3877.7186      3.3199558     -54275.699    
    259800   3116.1643      5761.75        236.54957      3724.8466      3.4178598     -54152.634    
    259900   3140.7241     -1538.4584     -30728.075     -181.41234      3.502794      -54103.736    
    260000   2738.5307     -28621.387     -52484.81      -19368.065      3.3607747     -53860.259    
    260100   2978.3396     -51929.518      5035.6464      32139.401      3.3771199     -53970.917    
    260200   3258.5781     -8497.2201     -25025.392      51584.83       3.4753137     -54098.547    
    260300   2876.6678      14437.174      2274.8348     -12962.392      3.3866043     -53927.685    
    260400   3011.8889     -17745.499     -15308.76      -7060.3246      3.4326522     -54066.749    
    260500   3007.499      -36906.372     -12811.844     -11343.633      3.3947317     -54199.988    
    260600   2727.5222     -6193.9116      32285.658      42477.163      3.4382441     -54251.543    
    260700   2749.1124     -47544.77       14890.749      10630.272      3.3327429     -54325.239    
    260800   3056.6689     -3671.2461      2362.2699      6279.8326      3.392051      -54493.784    
    260900   3031.532      -10280.442      10452.044     -8814.8589      3.3845831     -54466.123    
    261000   2926.8679     -6135.876       27608.845      6232.7146      3.4565937     -54347.481    
    261100   2892.4676      3924.3389     -7941.9567      19377.482      3.3459057     -54233.61     
    261200   3059.8828     -43700.165     -11333.641     -19392.381      3.208277      -54216.381    
    261300   3073.7917     -11483.403      25415.057     -10722.77       3.2876658     -54142.711    
    261400   2805.749       436.3008      -11051.372     -10268.746      3.2178139     -53958.35     
    261500   2835.5659     -20829.624     -15090.903     -31016.916      3.2442816     -53942.217    
    261600   3311.3386      21592.634      4658.6229      7921.1792      3.3408424     -54178.287    
    261700   3053.7765      15791.589      9653.5473     -17026.068      3.3463159     -54020.062    
    261800   3172.0459     -2032.904       20079.013      10213.42       3.3685107     -54093.967    
    261900   3197.1959      10549.524      22257.62       574.212        3.372742      -54217.866    
    262000   2859.9725     -4344.5491      22920.062     -8012.6295      3.3468794     -54225.956    
    262100   2959.5411     -4674.6014     -7297.2768     -30655.102      3.3222219     -54350.22     
    262200   2741.0248     -14017.632     -21774.814     -9946.814       3.3508149     -54253.027    
    262300   2766.3443     -11522.846     -41103.891     -48907.504      3.2924986     -54197.461    
    262400   3185.4244     -27184.382     -34163.821      1295.4844      3.3398464     -54339.597    
    262500   3075.4059      839.74186     -37839.615      28585.749      3.3461723     -54195.131    
    262600   2975.6632      5618.6957      2768.0432      15231.976      3.3442373     -54081.545    
    262700   3035.3097     -5589.3482      41088.661     -4360.4821      3.3834913     -54097.977    
    262800   2960.4961     -980.45449     -22529.812     -5631.0247      3.3373114     -54063.045    
    262900   3282.4904      3056.9108      19439.665     -15678.922      3.4104349     -54258.885    
    263000   2842.7594     -12050.477      23322.493      18138.851      3.3983685     -54006.866    
    263100   3117.7095      22790.109     -7896.175       15957.26       3.3813603     -54126.757    
    263200   3097.3282      29463.131      45609.465      25893.442      3.4323225     -54042.339    
    263300   3304.1861      22379.747      19358.424     -6051.927       3.4217006     -54077.336    
    263400   3073.7972     -26245.688      12318.209     -5266.8888      3.3576354     -53866.986    
    263500   3339.0802     -38389.133     -13368.134     -22337.031      3.3588391     -53981.533    
    263600   3026.1864     -13397.338      10841.698     -13802.219      3.3112304     -53855.291    
    263700   2917.0185      3910.5565      3137.9743     -23026.729      3.3686914     -53878.087    
    263800   3040.9163      12239.093     -7215.5374     -3292.8958      3.3533703     -54034.307    
    263900   3059.104       4431.3626      21976.609     -8699.5535      3.3969874     -54121.023    
    264000   3063.9914      20933.887      14780.414      21862.813      3.5057785     -54172.381    
    264100   2934.5102     -28965.747      17239.648      12456.239      3.44306       -54140.563    
    264200   3090.8956     -10322.903      10099.104     -3400.9085      3.386451      -54255.706    
    264300   2775.9559      11750.401      20342.162      21084.616      3.3637004     -54164.398    
    264400   2925.1606     -7856.1651      25782.862      16264.935      3.4892008     -54371.795    
    264500   2800.6442     -5432.8385      13140.975      14272.224      3.5493895     -54366.129    
    264600   2885.0401     -32553.278     -31453.108     -740.86265      3.4159908     -54416.738    
    264700   2912.1163     -5201.8728     -14227.468     -20103.04       3.4581949     -54401.167    
    264800   2848.2641     -20056.907      25656.123      22537.97       3.5276121     -54297.227    
    264900   2961.6668      2588.2798      11056.884     -15942.02       3.4355451     -54262.816    
    265000   3160.6114     -18365.04      -7010.1696      1587.4131      3.4469176     -54270.824    
    265100   3295.1944      46058.973      21479.31       60153.654      3.489107      -54264.213    
    265200   3041.4282      7619.0637     -1173.9868      22240.153      3.3395871     -54086.558    
    265300   3286.1017      1732.0358      4687.0055      35396.668      3.4731048     -54212.285    
    265400   3105.1108     -2602.2643      14174.406     -1303.3371      3.3920944     -54146.909    
    265500   2863.3732     -8151.5421      7807.6109     -43890.747      3.3569899     -54047.912    
    265600   2902.7427      11830.774     -7328.8797     -23530.731      3.451205      -54122.093    
    265700   3085.5628      12651.36      -18331.586      901.47753      3.4237848     -54272.748    
    265800   3087.3231      1147.7676     -15274.292      9321.9606      3.5048391     -54312.977    
    265900   3045.1824     -10762.138     -16587.509      1762.1862      3.46379       -54333        
    266000   2995.8195     -9667.4476      10063.494      18119.939      3.4638963     -54347.788    
    266100   3014.1236      26292.225     -3614.7161      16106.224      3.4878073     -54352.989    
    266200   3093.2015      3403.3488      17688.606     -29496.526      3.4345561     -54317.046    
    266300   2936.6394      37591.163      32795.54       3525.7121      3.438956      -54062.689    
    266400   3161.786       10105.776      9580.8957      10347.834      3.4009768     -54076.912    
    266500   3125.4053     -13625.518     -34340.183      16517.837      3.4019393     -54026.999    
    266600   3066.9509     -11317.084     -2282.8977      27179.178      3.4258065     -54020.963    
    266700   2950.9657     -4972.6094      12825.745     -15771.59       3.467625      -54040.292    
    266800   2774.6239     -43104.453      24830.361      14547.223      3.5106607     -54070.474    
    266900   2887.0802      312.26128     -6846.8003     -19468.987      3.451539      -54224.425    
    267000   2923.4308      16502.652     -12584.609      9139.4147      3.4338327     -54262.024    
    267100   3200.5907      6283.4592      3984.4703      17180.194      3.4697039     -54406.861    
    267200   2815.7837      9595.2525      41305.3        13061.607      3.487546      -54190.612    
    267300   2974.5829      29833.785     -11982.852     -28747.406      3.4611361     -54275.642    
    267400   2782.8767      20248.048      19799.261     -11618.854      3.4685356     -54142.999    
    267500   3130.4         52489.688      41217.418      21399.876      3.4517173     -54224.415    
    267600   3152.814       55014.791      29315.142      48989.97       3.4539823     -54100.74     
    267700   3238.8531      9381.5255     -2439.8423      34657.204      3.4015985     -54089.213    
    267800   2850.0013     -24383.076      34975.04      -5180.8132      3.3085723     -53864.322    
    267900   3184.2819     -6042.7361      19728.491      391.62523      3.2961705     -54087.235    
    268000   3112.6193     -18472.91      -4372.4606     -4649.579       3.3509625     -54108.738    
    268100   3060.4088      418.79153     -35423.842     -25501.289      3.3805547     -54121.136    
    268200   3204.9814      15348.566     -33977.007      2828.472       3.5521917     -54255.916    
    268300   3066.1613     -79054.366     -45830.912     -28464.554      3.426017      -54223.828    
    268400   3025.4241     -42892.391     -38974.851     -34161.639      3.4136325     -54196.398    
    268500   2885.3917     -29178.799     -21652.988     -49844.91       3.4149466     -54161.634    
    268600   2809.2791      16076.895     -12534.413      12206.853      3.4809322     -54132.791    
    268700   2829.8138     -20890.355     -26166.835     -22557.725      3.3931471     -54160.206    
    268800   2940.4523      14515.482      24576.513     -28733.237      3.4552561     -54203.037    
    268900   3030.8148      23507.144     -5432.8765      3709.3904      3.4323033     -54181.855    
    269000   3050.8595     -26912.36      -15553.76      -30752.434      3.3166902     -54075.971    
    269100   3572.9719      23571.183     -14872.897     -14812.686      3.4284459     -54255.273    
    269200   3198.8978      17825.146      2222.8642     -641.25646      3.3446614     -54022.813    
    269300   3146.8879      27961.645     -8541.8854      12097.296      3.4216721     -54026.957    
    269400   2935.237       17509.568      20819.539      11577.059      3.4475412     -53981.829    
    269500   3006.7788      8877.4118     -4755.1811     -11667.458      3.4330402     -54087.974    
    269600   2998.8612     -4377.7443      12417.517     -8903.4479      3.4342373     -54148.027    
    269700   2840.082      -4972.7706     -10111.668     -22307.516      3.2743948     -54108.383    
    269800   3092.0176     -8472.7025      10693.61      -30769.635      3.3636679     -54262.69     
    269900   2967.7569      8655.582      -4023.2617     -21494.097      3.3382257     -54208.967    
    270000   2888.3484      4393.1659      17226.061      14663.043      3.3620209     -54160.916    
    270100   3160.2518      6218.4168      56144.029      28257.801      3.4922753     -54287.005    
    270200   3192.5986      9770.6198      20092.017      31888.883      3.5517061     -54287.627    
    270300   2766.7173     -1833.5443      30774.458      3071.104       3.4888329     -54062.845    
    270400   3059.7189     -17573.399     -28805.78       2688.8356      3.4361725     -54240.705    
    270500   3100.6815      19749.729      32544.971     -12372.02       3.5194552     -54300.621    
    270600   3168.6498      19399.279      6919.8057      10160.434      3.4906647     -54396.528    
    270700   3036.0117      4293.6537      11161.871      17601.062      3.4943504     -54371.289    
    270800   2977.714       14668.29       27517.366     -5560.9575      3.4443727     -54352.805    
    270900   2864.4095      1161.3724     -2712.8906      8408.5539      3.4299042     -54242.838    
    271000   3042.7235      10614.175     -9178.2352     -29551.414      3.4106805     -54233.896    
    271100   2783.9611      14117.29      -18170.857      21953.305      3.3725947     -53964.412    
    271200   2953.9095      4526.6835      14362.52      -4436.3631      3.3635411     -53973.393    
    271300   3015.8706     -13285.065     -21754.585     -21362.679      3.3625164     -53968.138    
    271400   3176.2055     -19277.979      8093.5297      7366.7209      3.4366138     -54061.552    
    271500   3036.2014     -389.69839     -30611.118     -13529.86       3.366487      -54014.255    
    271600   3028.0457     -4948.1686      3491.0587     -9791.4434      3.5026182     -54080.449    
    271700   2873.7761     -56157.164     -19713.736     -2552.6666      3.3648815     -54034.863    
    271800   2904.4344     -13105.061     -9273.7478     -17219.85       3.4072513     -54136.051    
    271900   2930.8823      8645.6115      20228.727     -8564.984       3.5443855     -54302.033    
    272000   2874.0595      1881.7383      38669.29       32046.449      3.5393006     -54349.178    
    272100   3036.5852     -4749.2035      19637.344      17370.325      3.5356051     -54448.745    
    272200   2992.2153      20729.999      32329.465      10673.311      3.5294702     -54401.06     
    272300   2831.4304      13182.602      5180.0687      37688.052      3.5696737     -54266.723    
    272400   3111.5074     -7985.3293      10433.576      7751.3345      3.4847772     -54352.884    
    272500   2750.727       3262.5471     -592.39184     -35095.074      3.5094226     -54113.434    
    272600   2996.8982     -19177.145     -15544.964      7023.0516      3.4284872     -54184.396    
    272700   2955.294       17421.036      13130.529     -29115.276      3.4865257     -54123.995    
    272800   3147.5221     -32145.153     -3166.8819     -53484.666      3.3590469     -54204.775    
    272900   3148.5268     -20233.53       12654.156      20265.212      3.5308545     -54209.289    
    273000   2807.8654      6780.5449     -6415.0294      26245.268      3.4739452     -54082.815    
    273100   3004.9514      32474.663      33969.692      57170.088      3.6082571     -54312.568    
    273200   2899.7897      6503.8958     -6064.4817      11972.479      3.4793151     -54369.455    
    273300   2707.6906      12482.798     -27010.473      1662.2442      3.4794877     -54301.331    
    273400   2708.8168      5695.9257      13440.868     -9526.1626      3.4874528     -54288.07     
    273500   2640.4117      18999.836      25142.365      8186.594       3.3570345     -54165.63     
    273600   2946.6485      7991.8005      2480.6696     -613.2193       3.3602886     -54201.554    
    273700   2858.6884      20477.999      8110.0996      37073.658      3.4392571     -54066.208    
    273800   3211.6905      43980.824      27085.499     -2439.7906      3.4693973     -54208.386    
    273900   3004.0717      19284.324     -5310.0618     -8152.591       3.3596925     -54105.649    
    274000   2878.4522      8001.1732      1042.6707     -41813.814      3.3429341     -54031.569    
    274100   3248.726       15708.031     -1839.08       -31813.686      3.3591489     -54275.798    
    274200   2678.1196      5823.0236     -30559.325     -17728.749      3.3866102     -54063.743    
    274300   2969.5982      1698.5562     -21509.008     -19882.877      3.4030874     -54305.385    
    274400   2665.428      -52431.822     -9515.6431     -61079.347      3.299762      -54197.992    
    274500   2663.4436     -16435.758     -9271.2377     -8682.3549      3.3834563     -54183.821    
    274600   2955.7828      32451.083     -26018.977     -4060.5467      3.4472802     -54280.212    
    274700   2943.1378      15537.148     -20548.601     -34166.291      3.351881      -54196.955    
    274800   3194.2142      22168.83      -3771.7823      11252.187      3.4224354     -54143.723    
    274900   3224.5863     -2089.8499      4883.9203     -17867.506      3.4074856     -54014.566    
    275000   3150.2519      125.95285     -21715.543     -39855.657      3.3844863     -53951.385    
    275100   3226.6013     -27589.073     -14559.444     -33920.712      3.366437      -54019.519    
    275200   3256.0144     -23248.4       -8821.1011     -27055.773      3.4967841     -54112.45     
    275300   3095.7182     -22711.961      7357.1298      10390.649      3.4784145     -54125.031    
    275400   3009.8865     -15243.712      25760.21       1753.8999      3.4730568     -54156.181    
    275500   2821.325      -4920.6503     -7188.9253     -8896.2227      3.4284334     -54115.445    
    275600   3012.968       12350.751     -47242.366     -47485.093      3.3993426     -54257.264    
    275700   2826.504       5847.1365     -27464.289     -18531.245      3.4357611     -54180.308    
    275800   2842.6433     -23426.195     -46602.532     -22509.858      3.3285614     -54201.892    
    275900   2845.4107     -14464.856     -23124.333     -20118.4        3.3055932     -54187.403    
    276000   2967.8163      20343.521      16672.257      2391.5332      3.3734015     -54160.19     
    276100   3196.804      -6114.1416     -16880.141     -3599.4804      3.2838447     -54114.505    
    276200   3334.9248      5605.08       -26410.625      16201.443      3.2555716     -54083.281    
    276300   2970.4663     -7716.0951     -45231.504     -147.83775      3.2292423     -53865.319    
    276400   3128.0344     -21701.203     -9162.4549     -23140.511      3.2113206     -53944.021    
    276500   3154.5884      5101.5966      16129.457      22125.03       3.2334777     -53975.118    
    276600   3145.3614      85.220102      6547.4351      3690.1771      3.2082553     -54049.781    
    276700   2904.4164     -15010.199      2800.5412     -31918.902      3.2246224     -54049.638    
    276800   2833.3804     -5811.6694      26106.39      -25977.942      3.2725347     -54117.043    
    276900   2742.3662      7940.2241      9605.1483      24908.761      3.3065216     -54096.096    
    277000   2792.3457      10761.965      24768.896     -14354.86       3.3081449     -54106.15     
    277100   2889.5803      4971.4062      1424.3256     -34351.452      3.2762568     -54113.247    
    277200   2831.9162      13067.602      23644.474     -21782.59       3.3058733     -54015.567    
    277300   3116.8525     -21798.727      1338.6063     -11643.476      3.2262133     -54107.6      
    277400   3065.4925      8636.7047      28617.859     -33915.489      3.2835652     -54025.808    
    277500   2971.2582     -7905.5598      32613.416      7317.4562      3.3615104     -53961.558    
    277600   3082.9783     -18917.526      9829.6103     -26042.807      3.3341172     -54029.766    
    277700   3334.5617     -19573.678     -2211.4316     -32252.214      3.4048708     -54210.192    
    277800   2993.6869     -19376.371      17122.232     -6112.7305      3.4356217     -54148.619    
    277900   2816.1909     -13402.311      52429.097      20610.646      3.5448519     -54218.164    
    278000   2593.8489     -22363.1       -2784.3605      945.26834      3.4368864     -54152.518    
    278100   2953.2733     -52983.281      5898.7964      1201.6168      3.348926      -54359.288    
    278200   2685.4631     -13298.435      10738.407      10832.856      3.4472714     -54167.226    
    278300   3189.8839      13990.142      26730.67       41967.333      3.5195189     -54362.491    
    278400   2898.9941      18620.309      8562.9637      1061.0245      3.4252322     -54150.583    
    278500   3055.7496     -14184.83      -2899.8747      6916.2176      3.5505561     -54188.891    
    278600   2975.0302     -267.54205      20086.51      -5070.4447      3.5220501     -54107.599    
    278700   2894.7786     -225.50841      7813.4754     -50054.642      3.4545527     -54061.549    
    278800   3010.7051      12292.677      5683.2769     -21152.083      3.526421      -54153.51     
    278900   2904.2439     -7559.2806     -6693.8495     -8113.1194      3.4398937     -54206.346    
    279000   2961.2437     -44738.187      2567.2523     -10896.675      3.4984994     -54359.745    
    279100   2867.1074     -22150.415      14035.777      814.66914      3.5526114     -54358.672    
    279200   2932.5196     -13246.67      -1852.9988     -33347.879      3.4878054     -54416.67     
    279300   3052.0237     -624.31152      8457.3264     -19983.626      3.4648841     -54455.26     
    279400   2923.769       9491.6742      249.12752      15840.219      3.5429425     -54335.535    
    279500   3093.902      -5613.8717     -15186.654     -31037.298      3.476812      -54332.946    
    279600   3053.3079     -9391.3669     -18664.194     -28644.643      3.4212412     -54170.411    
    279700   3478.5873      18128.545     -28526.965     -9022.8523      3.4709147     -54321.034    
    279800   2982.7265     -6422.3222     -8976.8936      32815.7        3.4972871     -54063.761    
    279900   3006.166      -24031.453     -9638.8705     -1166.3702      3.4395207     -54098.035    
    280000   3022.9203     -1478.8448     -17499.519     -23821.249      3.5252083     -54147.083    
    280100   3145.1001     -2502.3965      5763.7074      2088.1221      3.5060712     -54267.65     
    280200   2972.5262      17086.347      20936.609      11891.132      3.5722924     -54235.791    
    280300   2969.5802      26155.34      -9246.1723      33805.63       3.5281563     -54272.041    
    280400   2877.5987      3516.0354     -354.94982     -20356.404      3.4959313     -54252.646    
    280500   3152.6326      17089.073      59655.517      59281.843      3.5434801     -54424.432    
    280600   3024.7675      15844.908      48764.393      44420.319      3.5577874     -54390.745    
    280700   2817.1961      8733.4038      3502.5602      7933.5668      3.578018      -54328.394    
    280800   2763.7303     -16406.198     -40229.998      40443.395      3.6388418     -54392.813    
    280900   2791.529      -31973.338      5966.4573      7115.2314      3.633295      -54546.744    
    281000   2705.6253     -18924.381      1823.5686     -2199.9054      3.6284246     -54564.205    
    281100   2694.7169     -12621.767     -9192.8891      2935.5826      3.6227122     -54518.186    
    281200   2913.7584     -25652.181     -51677.294     -35439.6        3.5233526     -54525.933    
    281300   2886.252      -33294.964     -32911.004      2536.9851      3.5441896     -54417.134    
    281400   2912.8303     -28806.158     -11024.94      -12496.389      3.5562654     -54375.62     
    281500   3175.5143      24924.729      4009.4567     -35999.272      3.5748238     -54471.899    
    281600   2882.5524      5937.8976     -13861.56      -3171.4917      3.487071      -54282.491    
    281700   3336.8423     -4547.3775     -11432.323      3264.6319      3.5467065     -54537.295    
    281800   3021.89       -2463.969      -15070.567      11200.443      3.5846414     -54384.729    
    281900   2987.0451      4572.0411     -8496.7435      1689.0757      3.5309049     -54421.456    
    282000   2912.9761     -19285.476      240.11017      12430.369      3.5597689     -54515.774    
    282100   2733.0307      44112.537      50452.191      22969.902      3.6475453     -54521.956    
    282200   2692.0323     -19496.294      8028.199      -29172.972      3.5262705     -54516.74     
    282300   2679.5141     -29951.486     -58764.588     -9696.9789      3.5749415     -54463.966    
    282400   2909.903       3512.9112     -30061.49      -11957.809      3.5750699     -54512.44     
    282500   2941.9438     -23856.758     -29699.429     -38994.824      3.5465679     -54433.516    
    282600   3046.4705     -22541.457      1638.224      -8317.1688      3.5655429     -54449.055    
    282700   2939.8786      23043.519      11208.747     -239.25716      3.5969137     -54377.227    
    282800   3054.3686     -12618.743      21714.329     -19824.545      3.6014924     -54434.536    
    282900   2696.9629      8912.621      -20765.094     -1530.4118      3.5645978     -54216.89     
    283000   3209.2652     -29555.356      8873.4068      5947.587       3.5198888     -54441.192    
    283100   3100.9161      4850.436      -12964.074     -18910.116      3.3917469     -54289.608    
    283200   2961.6677      40562.731      56103.416     -7572.6564      3.4899771     -54135.177    
    283300   3155.2455     -20885.538     -13194.434      23736.113      3.4918036     -54153.555    
    283400   2929.0325      5382.2061     -7120.9258     -35589.497      3.4632167     -53964.953    
    283500   3016.6797      19179.817      6788.7024      21133.356      3.4112653     -53934.966    
    283600   3168.6841      22508.323      1670.4766      7266.1096      3.351969      -53896.55     
    283700   3525.0609      30773.744      29039.738      37343.555      3.5079971     -53996.879    
    283800   3459.743       16616.936     -7525.4634     -8722.5425      3.432273      -53995.791    
    283900   3207.4285      17979.976     -11861.163     -17015.24       3.4109864     -53999.565    
    284000   2865.4694      32745.407      13703.398      19975.677      3.5056141     -53920.908    
    284100   2991.003      -4076.0781     -7727.4902     -2194.9193      3.4160799     -54044.591    
    284200   3120.2205     -1948.6652     -7707.1011     -22597.135      3.423437      -54179.3      
    284300   2934.3488     -6912.6435      13846.353      24304.108      3.4552162     -54166.824    
    284400   3034.8462      14619.802     -12704.607      4805.165       3.5122177     -54310.354    
    284500   2982.383       11136.964     -30446.734     -12864.031      3.5625978     -54328.486    
    284600   2857.5675      19451.375      2101.4756     -26998.559      3.5118423     -54277.039    
    284700   2854.7591      14643.29      -10562.173      2356.8681      3.4493144     -54244.426    
    284800   3070.3462      7863.2536      13855.997     -4561.1791      3.4876056     -54291.85     
    284900   2985.5899     -23997.244     -3431.2338     -32197.559      3.377504      -54133.489    
    285000   2980.4934     -1431.3319      11180.056     -48788.774      3.3665686     -53975.485    
    285100   3190.0098     -29010.672     -5731.4637      15507.087      3.3278699     -54030.119    
    285200   3126.8688     -6396.2128     -23510.243     -39803.944      3.2788897     -54011.003    
    285300   2907.8118     -11545.842     -6854.2618      1720.6252      3.2791914     -53938.182    
    285400   2937.3556      12575.519      6820.9783      7279.3687      3.2566551     -53988.84     
    285500   3187.5261      28596.24       39222.353      16190.639      3.4094988     -54175.957    
    285600   3146.0429     -12582.955     -1647.5612     -4823.6154      3.4088779     -54204.901    
    285700   3054.2222      10351.59       692.33688     -45999.589      3.3348129     -54178.923    
    285800   2939.0059     -7053.8896     -23393.374     -3513.3716      3.3530086     -54146.294    
    285900   2763.2395      9159.985       2155.4358     -53608.071      3.3997811     -54085.813    
    286000   2501.0019     -9996.4746      15902.678     -20209.802      3.4212491     -53902.226    
    286100   2854.6516      7278.4113     -51501.571     -25258.592      3.3441268     -54025.837    
    286200   3187.7808     -21240.953     -34415.674     -32161.277      3.3682893     -54000.671    
    286300   3459.0514     -16785.093     -22454.737     -19144.311      3.3678632     -54032.358    
    286400   3103.5127      1908.3932     -20997.747     -12001.766      3.2877188     -53850.57     
    286500   2895.9433     -19771.523      3110.1214     -29143.04       3.3252697     -53800.9      
    286600   2948.344      -4215.8747     -20613.201     -9052.7078      3.2974378     -53924.974    
    286700   3085.2584     -8541.497      -5233.6873     -2946.1885      3.3253739     -54084.391    
    286800   3180.2269     -28450.986     -22849.623     -29308.168      3.3609162     -54198.9      
    286900   2975.9824     -14565.24       2891.8836      15834.388      3.4352027     -54158.236    
    287000   2878.6728      4441.7016     -13154.713      22306.431      3.4255495     -54157.286    
    287100   3283.5448      24570.325      8465.2513      6590.9103      3.4635068     -54403.933    
    287200   3073.0368     -2759.29        4842.4135     -20755.515      3.3980808     -54308.206    
    287300   2881.7699      20638.9       -6537.7356     -21819.208      3.2901053     -54200.202    
    287400   2892.8772     -7448.9797     -15012.303     -20157.549      3.2617823     -54167.8      
    287500   3151.7851      19624.269     -4476.0486     -7484.3249      3.2819993     -54155.667    
    287600   3239.2633      10376.397     -9562.6275      19374.309      3.3649054     -54043.296    
    287700   3273.1748     -29484.37       6102.8573     -33318.002      3.3562839     -54020.964    
    287800   3242.437       14554.729     -28775.38      -8216.2265      3.4152587     -54007.265    
    287900   3250.219       28915.677     -14466.135     -3398.195       3.44505       -54089.093    
    288000   3081.8767     -1405.8662     -22924.715      8497.1965      3.4043449     -54100.451    
    288100   2997.1217     -1.3739614      8990.9108      7309.5159      3.3376725     -54151.981    
    288200   2969.5824      13863.629     -8250.6447      12610.253      3.3042309     -54167.639    
    288300   2800.8957     -1795.6266      18977.184      53665.141      3.3384931     -54072.99     
    288400   3095.3788     -10195.095      3922.6451      13005.233      3.3810527     -54217.511    
    288500   3208.538       24308.07      -14193.273      27841.432      3.453904      -54261.942    
    288600   3160.991       17830.466      21317.182     -3295.6959      3.5168705     -54246.009    
    288700   2889.4614     -718.60254      17764.91       17747.937      3.472012      -54149.357    
    288800   2765.6075      12852.387     -12428.639      42823.366      3.5158156     -54202.833    
    288900   2809.1938     -13177.011     -8961.2823     -16169.908      3.5172214     -54365.159    
    289000   2654.4702     -23574.081     -10268.424     -19334.233      3.4865361     -54331.463    
    289100   2597.3417     -27677.851     -19531.616     -7507.4507      3.4406216     -54273.991    
    289200   3048.8532     -21243         -36078.253      10642.943      3.5557371     -54435.478    
    289300   3012.1067     -35743.056     -18621.569      21991.203      3.5502176     -54331.822    
    289400   2863.7161     -1667.6756     -4406.2707      16602.066      3.5812179     -54219.288    
    289500   2795.2591     -36845.269     -29274.388     -26989.953      3.4071072     -54172.671    
    289600   3072.6708     -12431.069     -16558.232     -15050.855      3.5277168     -54315.66     
    289700   2840.6835      9180.6102      51801.18       3333.9607      3.4805877     -54194.238    
    289800   3044.2947      51319.026      14842.805      39335.207      3.5729299     -54289.527    
    289900   2859.2339      45957.146      27155.248      23099.244      3.4400731     -54152.176    
    290000   3076.38        40403.962      14304.398      39799.867      3.4070112     -54184.505    
    290100   3235.0569     -3109.7556      14981.103      35651.206      3.3337052     -54081.746    
    290200   3265.0013     -215.5386      -10349.149     -1830.0515      3.3066536     -54034.041    
    290300   2967.5189     -19678.444     -10328.928     -36808.861      3.2303326     -53856.231    
    290400   3110.6616     -10941.424      27353.087     -34217.054      3.3100437     -53970.31     
    290500   3026.1181     -15834.222      4746.4363     -9619.6935      3.1869063     -53966.564    
    290600   3122.22        19679.212      17600.514      35802.382      3.3095346     -54065.712    
    290700   2892.4232     -4300.8058     -547.54421     -31162.842      3.3142444     -54019.724    
    290800   3106.6861     -1461.6373     -7000.6944     -19385.796      3.3152592     -54242.938    
    290900   2746.3796     -13418.265     -20693.898      5428.8605      3.3276771     -54135.678    
    291000   3058.7619      6357.9248     -17884.638     -8941.7223      3.4421257     -54378.341    
    291100   2924.572       16356.068      30835.64      -2121.3394      3.5147671     -54370.565    
    291200   2810.2039     -898.63944      5414.6917     -2737.5001      3.4403301     -54382.343    
    291300   2703.0889     -15509.235     -12182.124     -22376.087      3.3988856     -54424.286    
    291400   2482.2818     -20223.339     -33999.772     -27686.1        3.37283       -54423.32     
    291500   2666.4294     -20450.147     -7362.2563      10924.568      3.4335184     -54562.963    
    291600   2835.7497      726.22736      14640.325      27852.782      3.4896552     -54595.957    
    291700   2928.9095     -17127.533     -11304.754      14688.554      3.356009      -54509.645    
    291800   2564.3116      2872.252      -16054.802     -3978.2671      3.3544575     -54205.747    
    291900   2840.278      -42407.135     -33703.996     -3731.9135      3.2998278     -54272.981    
    292000   2977.8494     -1255.9123     -8071.3214     -5068.6392      3.3829485     -54269.935    
    292100   2876.1764     -14058.986     -20916.453     -30824.593      3.3152191     -54157.222    
    292200   2955.6803     -34540.844     -12805.967     -48108.127      3.2801102     -54129.8      
    292300   3091.9503     -37817.789     -6990.9519     -19702.873      3.3180174     -54141.759    
    292400   2950.8526     -3669.7298      17594.45       7489.7077      3.4180632     -54026.799    
    292500   3212.6807      13580.028      3168.7591      24175.588      3.4292432     -54127.119    
    292600   3070.6533      11373.367      38884.63       25289.327      3.3918199     -54025.705    
    292700   3158.4081     -3617.6252      49079.412      28712.324      3.4796846     -54104.633    
    292800   3014.7902     -8648.0667      6988.4043      26361.713      3.4361423     -54150.082    
    292900   2567.1948      3564.5391      12544.374     -20267.722      3.3259069     -54036.715    
    293000   2798.7415     -25108.113     -36228.732     -5523.2479      3.313214      -54204.492    
    293100   2975.0011      9369.7712     -12348.073     -13038.025      3.3523318     -54299.765    
    293200   2850.3131      11227.174      43966.902      52544.242      3.4259625     -54187.181    
    293300   2727.4883      9595.1174      36603.778      38369.84       3.3134484     -54036.567    
    293400   3299.1578      6993.6149      24331.503      4978.2289      3.4237595     -54232.748    
    293500   3167.9827     -31575.061     -6024.4695     -41452.162      3.3132379     -54087.104    
    293600   3226.358      -6828.6938      20450.556     -37795.438      3.3175867     -54104.766    
    293700   3410.9463      23607.528      32697.438      21628.731      3.4254059     -54216.885    
    293800   3063.2889      37088.732      34192.754      3494.0727      3.4257051     -54036.431    
    293900   3116.0046      3429.6357      25100.391      19860.861      3.4214749     -54119.487    
    294000   3170.9436      11500.157     -11046.304     -3223.7         3.4258        -54227.677    
    294100   3176.7229     -15050.428     -2775.7681      23513.806      3.4057175     -54284.313    
    294200   2780.3694     -31248.238     -1491.9497     -23674.46       3.3261959     -54100.804    
    294300   3027.5695     -7534.4216      33587.969      12694.771      3.4504588     -54224.741    
    294400   3095.6983      12093.42      -13256.754      10687.727      3.3527556     -54257.427    
    294500   3115.8508      2347.0867     -1794.6316     -6629.0565      3.3173577     -54282.324    
    294600   3010.6225     -17152.757      269.42698      11964.328      3.3429314     -54221.773    
    294700   3018.2099     -13161.36       788.27458     -2136.0104      3.3445646     -54221.622    
    294800   2885.2683      13138.008     -15190.172      11160.612      3.2975696     -54131.582    
    294900   3009.6163     -21736.024     -9963.472      -20682.021      3.2109684     -54135.403    
    295000   3127.8891     -19346.422     -47752.723     -10697.571      3.2960169     -54077.972    
    295100   2941.3404     -20.400922     -23807.587     -28444.38       3.2494458     -53864.187    
    295200   3266.5846     -17633.532     -5476.1431     -11357.346      3.3010639     -53976.185    
    295300   3245.9726      9365.2962      29165.112     -19216.458      3.367552      -53974.155    
    295400   3198.7998      40910.747      5906.3712      3487.0688      3.3691289     -54010.286    
    295500   2929.5296      5009.7312      30995.439      21973.521      3.3455766     -53951.411    
    295600   2943.2158     -13732.422      51905.179      30293.056      3.3599568     -54077.822    
    295700   3002.684      -13671.693     -49.803275      4881.0406      3.4011612     -54197.872    
    295800   3172.1277     -3260.7726     -19943.631     -8481.9856      3.3828711     -54314.658    
    295900   2964.8713     -22953.196     -37105.317     -22741.739      3.2723678     -54208.236    
    296000   2878.0202      14501.847     -7580.1037     -38530.392      3.396267      -54171        
    296100   2814.1194     -3353.0404      3283.865      -26573.524      3.3928642     -54116.195    
    296200   2877.6593      30445.76       16300.962     -748.26778      3.4353527     -54090.394    
    296300   3331.8451     -10018.085     -20227.902      12690.758      3.4050947     -54242.709    
    296400   3121.7287      26558.211      14783.325      23113.357      3.4718643     -54041.992    
    296500   3087.8543      2743.5168     -41855.499     -17031.121      3.3392276     -53923.526    
    296600   3205.5169     -36188.59      -31305.91       23800.381      3.3826372     -53869.688    
    296700   3543.4252     -6931.479      -11543.15      -3771.8393      3.5046488     -54001.606    
    296800   3399.2369      32624.209     -31134.913      9834.8297      3.4651707     -54032.722    
    296900   3367.8155      15111.839      4246.1248     -10844.076      3.5661395     -54226.705    
    297000   2999.4404      28565.982     -5149.4012     -5383.7012      3.4708062     -54130.943    
    297100   3180.0765      23141.952      2367.5414      12952.439      3.5044592     -54328.41     
    297200   3162.6324      40678.152      14873.625      2100.0861      3.6573067     -54406.742    
    297300   3094.499       9402.5237     -8912.2187     -18565          3.6358539     -54435.349    
    297400   2789.3805      52188.223     -30982.725     -17006.109      3.5619334     -54322.757    
    297500   2820.221       30177.598      40347.63       32556.021      3.6140288     -54355.844    
    297600   3038.9279     -25929.972     -9679.7691     -14662.535      3.4452174     -54428.01     
    297700   2991.6334      801.09964      9058.6879     -19670.865      3.4715221     -54319.465    
    297800   3275.1481     -7647.396      -21627.084     -5814.0411      3.522605      -54379.016    
    297900   3221.9458     -17078.87      -74762.728     -43374.569      3.3964119     -54273.295    
    298000   2580.7521     -26943.586     -40234.937     -28727.736      3.3564081     -53913.773    
    298100   2918.7592      5966.3612     -3704.1182      13412.121      3.4436681     -54047.425    
    298200   3220.6244      7116.6081     -26716.997     -40673.475      3.3548176     -54110.607    
    298300   3053.3517     -8851.8745      15562.024     -25802.36       3.3668052     -53854.549    
    298400   3230.4991      1887.6232     -16284.259      1943.6504      3.2658915     -53841.952    
    298500   3177.09        11687.012      345.7645       14543.548      3.3623127     -53808.904    
    298600   3517.8618      7754.7663      11786.774      12348.575      3.3813296     -54071.089    
    298700   2939.3474      26178.032      24200.618      27455.937      3.3425163     -53839.891    
    298800   3142.4991      74822.35       31655.193     -4488.3308      3.4186058     -54017.553    
    298900   3197.0617      28119.521      18556.434      14536.3        3.3849702     -54090.32     
    299000   3138.7731      2244.9148     -29403.516      10914.968      3.3794266     -54106        
    299100   2822.1261      3002.4985     -19833.545     -12620.736      3.4755522     -54013.456    
    299200   3023.2642      37581.863      20998.934     -21869.727      3.513642      -54196.601    
    299300   2929.1935      35253.267      5498.3639     -2175.5559      3.5724746     -54223.476    
    299400   2921.4285      13126.417      14172.273      30331.7        3.5931359     -54262.792    
    299500   2766.5356      42773.5        29977.114     -21585.687      3.5365955     -54185.813    
    299600   2880.3908     -29607.149     -38078.75      -9049.9491      3.3741688     -54198.794    
    299700   3086.7974     -26160.439      6261.9816     -41866.983      3.415769      -54177.824    
    299800   3080.8232      10300.774     -17502.817     -6859.452       3.4030294     -54026.459    
    299900   3222.0783     -816.55201      24350.785      20709.371      3.4571832     -54059.885    
    300000   3174.5978      34589.059      16367.307      24243.566      3.4509047     -54037.549    
    300100   3236.3831      36127.935      44538.337      9446.1099      3.5168413     -54113.453    
    300200   3319.6526      41968.637      12915.793      49513.815      3.5944116     -54214.573    
    300300   2957.6469      2561.794      -18828.892      4925.8258      3.4042446     -54073.941    
    300400   2945.1097     -4618.2576      19573.363     -38234.861      3.4234929     -54110.592    
    300500   2795.656       8369.9433      14589.873     -24050.382      3.4162597     -54059.737    
    300600   3156.5117      21616.706     -3052.8208     -8897.9387      3.4530462     -54261.268    
    300700   3038.6931      17199.987      30198.018      31399.127      3.4335868     -54168.61     
    300800   2938.9158      12234.784      6968.5314      5935.1885      3.4012048     -54060.235    
    300900   3358.4763      26115.472     -34943.139     -4408.7865      3.4829757     -54179.225    
    301000   3357.5047      21405.784     -51018.888     -29736.931      3.3682449     -54113.328    
    301100   3118.5158      2529.5954     -6275.519       8084.5953      3.4442442     -53987.229    
    301200   3131.1366      24521.256     -29764.475      47843.582      3.5476417     -54085.268    
    301300   3207.8168      41679.271     -14638.053      29128.393      3.5514642     -54216.672    
    301400   2785.1877     -2000.7946     -25277.833      4632.4835      3.4225602     -54111.25     
    301500   3076.9558      20342.024     -14456.811     -11161.982      3.5057984     -54327.134    
    301600   2724.8823     -5484.7404     -25678.627      14137.482      3.4364882     -54155.708    
    301700   3163.279       2495.1567      7966.1385      57585.417      3.5271513     -54378.798    
    301800   2968.9283     -16987.712      22513.835     -8525.7389      3.4571117     -54253.311    
    301900   3060.4753     -15668.501      2363.6373     -12919.539      3.3232683     -54301.154    
    302000   3199.8935     -16455.324     -3740.8075      7269.4412      3.436073      -54366.415    
    302100   2970.2563     -5558.6939      4232.9869     -15670.487      3.3464596     -54251.953    
    302200   2977.5952     -11367.246      22892.476     -15240.057      3.445607      -54284.286    
    302300   3059.4348     -21311.257     -18614.725     -33772.581      3.4289998     -54373.439    
    302400   2898.4998     -14252.631      15473.4        11725.278      3.5341619     -54368.235    
    302500   3039.3286      9113.746      -8839.7552      20405.656      3.5265106     -54528.453    
    302600   2875.458       1409.7642     -5958.1535      11629.358      3.5551694     -54498.121    
    302700   2820.5224     -19680.717      11844.9        6811.6793      3.5047122     -54478.845    
    302800   2730.1565     -4075.1954     -26961.253     -21370.972      3.450083      -54377.798    
    302900   2682.7734      7066.6822     -23197.343      10280.747      3.4793467     -54225.771    
    303000   2913.1007      3158.5706      9963.7338     -2341.9116      3.3939401     -54229.334    
    303100   2871.2029     -7842.5359     -39331.153     -19951.766      3.3100749     -54140.694    
    303200   3159.1484     -2180.716      -23661.835     -9996.7612      3.4051387     -54254.552    
    303300   2995.6439      22578.77       11070.897     -8315.0322      3.4502992     -54156.213    
    303400   2774.9805     -17753.599     -5930.9129     -431.79345      3.3124991     -54034.196    
    303500   3015.7173     -7786.6631     -9077.4004     -5555.1251      3.3818204     -54153.771    
    303600   2995.8743     -8313.3267     -29641.476      10244.727      3.3347261     -54125.564    
    303700   3244.4408     -16686.919      2288.1122      30424.963      3.3668108     -54248.04     
    303800   3003.5317     -21933.703     -12388.612      4347.5987      3.3343394     -54166.166    
    303900   3132.409       10980.842     -30429.162      11516.68       3.4452232     -54360.372    
    304000   2967.0029     -3992.288      -17116.287      1797.7133      3.3857914     -54382.561    
    304100   2939.5915     -17241.14      -23854.487      9295.4596      3.4350906     -54426.32     
    304200   2942.1768     -8082.1495     -19435.094      316.71249      3.4825738     -54439.597    
    304300   2994.1683      770.95873      28835.408      15900.87       3.5301594     -54436.961    
    304400   3018.2338     -1746.8266      31607.612      35433.002      3.5521316     -54384.034    
    304500   3170.2999     -886.36148     -7331.1836      1297.3708      3.3768099     -54382.617    
    304600   3163.6319      20654.495     -9067.6503      29341.968      3.4717005     -54263.43     
    304700   3323.1221      5476.6914      17553.131      19161.811      3.3837044     -54218.277    
    304800   3100.609      -33374.362     -23125.445     -17843.944      3.3294955     -54015.188    
    304900   3165.0351     -23437.223     -11976.014      5134.8316      3.4332765     -54049.598    
    305000   3212.0564      12964.268      12938.425      40086.736      3.5703663     -54122.072    
    305100   2936.174      -35911.274      8687.7074      16438.99       3.4661354     -54035.569    
    305200   2992.5878     -10930.572     -26615.675      8876.5892      3.5204182     -54278.408    
    305300   2710.0512      45106.476      6466.1953      14278.94       3.683726      -54267.449    
    305400   2823.3638     -10724.928      9776.6768      26276.811      3.5624799     -54342.677    
    305500   3117.2058      14695.506      17775.056      38415.83       3.6267069     -54468.864    
    305600   2923.2965     -6675.638      -16254.019      4431.8687      3.5284711     -54303.438    
    305700   3084.888      -17618.18      -18091.562     -19927.033      3.5179508     -54329.029    
    305800   2900.9522      8519.3235     -5156.4184     -6934.4389      3.446834      -54121.032    
    305900   3038.0166      29713.631      19331.071      23199.497      3.5608879     -54098.055    
    306000   3048.659      -7314.5347      26475.027      30489.44       3.5511614     -54030.716    
    306100   3216.1024     -3748.1399     -42557.168      9791.3909      3.4593664     -54081.919    
    306200   3224.1864     -15460.202      610.0798       7622.775       3.4200926     -54079.788    
    306300   3440.7659     -14704.751      2917.3851      27335.809      3.3925849     -54230.182    
    306400   3061.3517     -28312.142     -13629.428      3217.689       3.3525392     -54123.354    
    306500   3046.1286     -4505.536      -33397.587     -29508.294      3.3701799     -54251.935    
    306600   2884.3092     -5070.7625      4271.3075     -11907.864      3.4162352     -54245.833    
    306700   3025.2074     -29027.19       18527.391     -22367.38       3.5157555     -54336.492    
    306800   2787.3795     -5819.147      -17904.666     -33815.724      3.4467465     -54210.853    
    306900   2858.7224     -1284.1747     -2422.2893      18843.61       3.5253333     -54230.536    
    307000   2945.4703      8735.3168      9940.5947      14386.952      3.4698862     -54238.234    
    307100   2621.9007     -14845.616     -4910.5452     -12100.561      3.3325469     -53995.902    
    307200   3135.2784      9821.7305     -21365.988     -6112.5303      3.3735915     -54180.114    
    307300   3300.5004      31722.015      1426.6005     -5400.3996      3.4956801     -54177.592    
    307400   3246.5624      12777.94       10933.087      34809.317      3.5678472     -54116.337    
    307500   2913.5166      8675.5115     -6543.3876      19543.809      3.3898554     -53959.723    
    307600   2979.2865      16129.914      9036.0181      39078.269      3.4248682     -54034.509    
    307700   2896.4929     -1407.151       7847.4229      18453.517      3.446337      -54025.051    
    307800   3217.4655     -28730.668     -20466.405     -26228.796      3.3727719     -54233.804    
    307900   3224.37       -13758.259      10772.974     -3979.0356      3.4036962     -54272.538    
    308000   3071.7625     -1296.4523      4051.0973     -7765.9909      3.4157887     -54238.658    
    308100   3136.2273      23347.63      -7857.5817     -19885.371      3.4263065     -54338.104    
    308200   3053.9655      7703.7846      3748.5685     -35890.33       3.378873      -54367.581    
    308300   2879.9334      14240.982     -29781.144      7885.2834      3.4533212     -54319.058    
    308400   2968.1177      10136.038     -43481.412     -37862.093      3.4798375     -54368.9      
    308500   3028.1302     -52016.486     -21108.725     -12659.801      3.5397137     -54403.734    
    308600   2611.6484     -27912.97      -50260.454     -29010.983      3.4471873     -54180.912    
    308700   2918.5207      16155.377      12870.623      22167.324      3.5555578     -54321.541    
    308800   3003.228      -26393.47       48999.957      25087.241      3.5336194     -54247.913    
    308900   2998.0832     -22890.251      15371.875      44101.452      3.5178565     -54021.217    
    309000   3220.1921     -15209.905     -6836.4226     -20706.354      3.5362889     -54099.462    
    309100   3423.0225      17100.425      24804.906      2576.8182      3.5712069     -54237.04     
    309200   3142.6942     -19355.668      7803.8241     -40299.224      3.4478678     -54184.961    
    309300   2893.1996     -37021.152     -23989.864     -18259.532      3.4796378     -54150.499    
    309400   2837.7619     -21369.883     -13388.844     -54324.668      3.4903224     -54199.117    
    309500   2953.6206      7017.4491     -638.31017     -9194.0162      3.5837865     -54315.633    
    309600   3032.5282     -12053.206      10682.674     -12790.683      3.4657854     -54383.035    
    309700   3036.8915     -23294.849      35544.182      5562.9439      3.4939564     -54365.266    
    309800   2911.6664     -6322.7635      6660.7762      20397.189      3.4684369     -54249.463    
    309900   3025.3827     -41391.743     -964.70482     -27128.475      3.3559664     -54196.991    
    310000   2752.5753     -29489.569     -861.11806     -4351.8053      3.3489714     -53899.513    
    310100   2885.8516     -42593.649     -25906.718     -37977.911      3.2157849     -53900.195    
    310200   3162.6633     -17977.074     -8009.084       4338.9395      3.3512227     -54054.02     
    310300   2917.3029     -31889.168     -1157.6756     -17746.332      3.3433008     -53915.716    
    310400   2967.7219     -34943.88      -32779.281      1045.6347      3.3195825     -53951.891    
    310500   3121.1946     -25134.645     -28498.391      29139.663      3.3497294     -54067.037    
    310600   2781.1331      18922.94      -12299.671      5431.9245      3.3610807     -53970.911    
    310700   3062.4513     -479.35945      2659.2734      19484.927      3.431108      -54246.724    
    310800   2823.8195     -7447.5178      6076.4833     -27946.228      3.3398582     -54201.882    
    310900   3116.7692      12973.987      23379.128     -17435.72       3.5356533     -54375.728    
    311000   2991.3451      14417.83       268.62672     -8481.0125      3.4503039     -54311.525    
    311100   3046.9271      6196.6593      34016.621      10889.532      3.5673983     -54341.879    
    311200   3128.2612      20825.796      25338.438      36808.78       3.5643218     -54381.64     
    311300   2887.8847      18980.539      7985.1426     -21414.139      3.4884668     -54245.932    
    311400   3038.1745      7278.8615      8341.9673     -1179.9276      3.4649575     -54336.149    
    311500   2789.1934      3539.4358     -4158.4528      13787.354      3.3479055     -54213.348    
    311600   2684.6566     -4925.9189     -15464.229     -32964.304      3.2954237     -54130.66     
    311700   3017.214      -43301.331      15466.235     -36233.623      3.3267638     -54240.234    
    311800   3040.0394     -15629.971      25251.276     -27548.082      3.3738769     -54219.384    
    311900   2879.6247      17290.127      50934.557      40426.064      3.4849613     -54097.354    
    312000   3205.1289      31031.615      44900.508     -37195.391      3.5070858     -54270.161    
    312100   3077.5758     -25034.698      18993.086      13869.611      3.4398385     -54226.283    
    312200   3130.5588     -16486.968     -12105.503     -2922.1206      3.4296779     -54311.093    
    312300   2665.5291      12177.118      6003.4956      12987.402      3.4428644     -54091.142    
    312400   2977.5834     -26463.765     -16500.447     -2408.4599      3.4103156     -54265.967    
    312500   2845.2703     -7611.2279     -1961.6355     -4075.7432      3.4465216     -54173.536    
    312600   2959.3893      17547.769     -818.38973      14029.467      3.4867685     -54143.239    
    312700   3071.46        17860.561     -9903.9327     -22176.505      3.3652854     -54047.298    
    312800   3385.3552      19762.434      13572.439      32451.03       3.4744146     -54121.73     
    312900   3219.3472     -17431.51      -15722.666      8027.2231      3.3542037     -54021.098    
    313000   3185.6725      38636.804      20326.014     -12696.732      3.4132662     -54037.364    
    313100   2998.5945      26522.904     -13790.261     -25524.445      3.3922835     -53997.537    
    313200   2779.6199      69049.534      46346.927      28556.048      3.4166674     -53957.631    
    313300   3134.2597      3414.891       17800.241      31085.83       3.4686285     -54218.65     
    313400   3098.255      -13491.093     -18131.045      895.33447      3.4405786     -54250.301    
    313500   2903.3453      3818.48        903.62775     -15254.432      3.3544219     -54163.348    
    313600   3367.8367      5890.7682     -12327.086      13268.618      3.4726036     -54427.445    
    313700   3030.5623     -6842.3553      25921.391      1672.8454      3.5202453     -54277.576    
    313800   2966.3524     -37300.403     -16942.49      -34349.92       3.3992341     -54270.428    
    313900   2958.9075     -25171.697     -30164.283      2974.4412      3.4839336     -54307.102    
    314000   2911.4358     -4801.4838     -23244.806     -7442.4119      3.4567496     -54270.034    
    314100   3031.1288     -42014.291     -22243.58      -21903.541      3.3970621     -54340.66     
    314200   3013.3415     -9566.471       4110.9052     -14686.27       3.4085291     -54304.39     
    314300   3114.5819      1603.7765      5541.76       -25665.883      3.3968533     -54368.559    
    314400   2817.3058      1142.9681      15783.721      7026.1705      3.4341998     -54205.502    
    314500   3110.6833      7393.4752      3122.5688      16894.094      3.496161      -54345.723    
    314600   3204.1772     -17365.204     -7713.642      -24821.805      3.4046389     -54378.598    
    314700   2821.3785      22146.439      33178.967      12580.939      3.4528852     -54168.532    
    314800   2880.4367      21437.078      7222.0521     -20590.194      3.3800611     -54207.282    
    314900   2871.1065      13234.212     -2832.9058      6631.8111      3.2877884     -54182.402    
    315000   3270.6003      14413.479     -10708.292      11832.754      3.3650641     -54355.224    
    315100   2943.7246      9565.5656     -28864.51      -29990.427      3.2568978     -54153.345    
    315200   3181.5097      31851.88      -36482.377      10834.985      3.4667466     -54283.562    
    315300   3153.65       -8723.3938     -15014.587      2754.7333      3.433694      -54232.683    
    315400   3069.8175      36446.203      22772.825     -19611.596      3.5950458     -54181.443    
    315500   2872.814       4455.303       7810.4765     -3027.4528      3.4593827     -54109.079    
    315600   2956.5858     -9211.3983      2998.6233      23883.095      3.5675349     -54191.835    
    315700   2984.5575     -29327.115     -152.53478     -16002.074      3.463875      -54254.279    
    315800   2849.8447     -11612.201     -18267.555      18849.963      3.45846       -54262.823    
    315900   2646.9454     -28276.369     -5471.0632     -7462.7837      3.5242255     -54236.769    
    316000   2949.2822      3833.7438     -36994.899     -27934.21       3.5822347     -54458.737    
    316100   3005.2207     -17.712861     -27708.348      5770.0451      3.5796049     -54533.719    
    316200   2646.6687     -16104.334      16233.913      102.62486      3.5758411     -54362.217    
    316300   2878.4613     -36020.933     -2464.6954     -45789.315      3.5253732     -54486.48     
    316400   2872.3102     -30540.046      4977.6788     -25058.791      3.4585164     -54415.196    
    316500   3055.1097     -11150.11      -27948.525     -43338.074      3.4525599     -54360.936    
    316600   2777.621      -15940.084     -8531.5278     -21969.925      3.4005596     -54087.792    
    316700   3128.7229      43076.362      32086.689      5555.4213      3.5261578     -54204.946    
    316800   3083.0064      14422.114      39310.697      31623.431      3.5253754     -54138.761    
    316900   3075.9203      2928.2377     -11969.14       14953.377      3.4328374     -54128.965    
    317000   3170.4152     -10909.05      -3979.4156     -15080.491      3.4231807     -54195.198    
    317100   3136.3369     -22199.888     -1610.0738      5614.2607      3.5145016     -54254.594    
    317200   3054.1142     -5745.1208      16859.379      4266.5504      3.6335717     -54336.313    
    317300   2952.6275     -28943.604     -47178.89      -51015.177      3.4787902     -54380.049    
    317400   2896.7945      4225.1274     -13721.557     -30328.186      3.5436415     -54406.823    
    317500   2723.9329     -42773.304     -1905.6505      18567.79       3.5708857     -54325.579    
    317600   2915.1534     -22832.219      25544.914      28138.906      3.6620953     -54440.47     
    317700   2991.5501     -15834.851     -785.99266      37272.307      3.6712075     -54468.921    
    317800   2862.2058     -23384.398     -3865.5241      49726.793      3.6712321     -54376.77     
    317900   2609.1126      7276.4432     -14450.911      8847.2094      3.5837823     -54162.341    
    318000   3168.6315      7909.3114      16248.59      -25467.776      3.6234734     -54284.272    
    318100   3038.994       18158.668     -10435.201      2459.7136      3.6335949     -54134.577    
    318200   3157.0892      39674.058      19536.884      26342.948      3.6630846     -54178.266    
    318300   3020.3587     -2716.6027      50110.559     -17234.133      3.5255064     -54111.996    
    318400   3330.5896      22063.755      22510.093     -28854.801      3.4726991     -54310.979    
    318500   3299.0654      62013.666      21950.218      6068.4925      3.5344507     -54357.092    
    318600   2821.9401      11522.803      9268.5491      10249.51       3.4502476     -54176.271    
    318700   2856.7599     -19416.736      18735.284      14433.347      3.3885422     -54232.935    
    318800   3015.0028      27533.519      40515.224      18362.147      3.5766675     -54321.312    
    318900   3122.8023     -16752.346      6087.5719     -13597.227      3.527614      -54331.137    
    319000   3049.8313      312.62158      9092.5416     -12497.28       3.4461866     -54146.461    
    319100   3285.6714      15486.582      45447.086      28272.177      3.4821737     -54119.564    
    319200   3023.0614      5748.8152     -35583.122      19567.902      3.3605752     -53917.406    
    319300   3150.2444     -5688.7125      4080.2415     -10466.65       3.3533173     -53975.944    
    319400   3256.4598      27847.999      27612.923      37056.798      3.4442366     -54051.087    
    319500   3182.9599      10905.052      10658.83      -9962.3324      3.3303889     -54077.667    
    319600   2796.3644      6221.153       174.90455     -9226.2155      3.3977366     -53983.512    
    319700   2973.9566      7784.3201     -37981.778      2141.7621      3.43575       -54160.278    
    319800   2899.7683     -7223.1754     -15483.628     -2480.6439      3.4488727     -54156.678    
    319900   3030.0061      389.21008     -48624.049     -34834.449      3.4033956     -54238.083    
    320000   2961.0692     -13881.959     -36429.304      542.96602      3.4565304     -54224.12     
    320100   2917.1873     -28054.078     -10678.138      6926.2937      3.4992732     -54236.224    
    320200   3128.9586      9392.9825      24134.887     -18814.855      3.5953379     -54396.8      
    320300   2863.0646      43344.784      11006.462      16061.964      3.5801707     -54324.677    
    320400   3089.9142      18942.563     -9249.8693      11199.694      3.5890987     -54571.02     
    320500   2697.3262     -21849.501      1229.6563      12717.407      3.5647725     -54497.47     
    320600   2548.7799      11142.748     -10849.374     -1900.2656      3.5530069     -54445.37     
    320700   2732.0195      24121.542      15527.885      20985.494      3.6433017     -54490.462    
    320800   2763.5087     -18381.691     -12328.228      39119.118      3.6704528     -54420.015    
    320900   2854.292      -15385.976     -16710.873      4225.2962      3.5935892     -54387.887    
    321000   2920.7266     -4040.9524     -12601.117      10781.302      3.4854503     -54348.519    
    321100   2889.3245     -12938.676      6480.9295     -4423.4366      3.5028725     -54262.48     
    321200   3145.1679     -9529.7536      50379.434      1108.1572      3.5185808     -54322.703    
    321300   3072.9533      36357.368     -10803.449      9579.7422      3.5754538     -54214.791    
    321400   2930.8837      536.88211     -22852.121      19869.744      3.510316      -54094.454    
    321500   3141.0004      7546.5317     -33594.811      2498.9099      3.4661567     -54177.161    
    321600   3035.0204      49225.376      45959.698      36473.185      3.5408682     -54100.172    
    321700   3187.9203      58039.263      18667.042      31691.749      3.4555087     -54139.5      
    321800   3031.3795      20278.267     -12724.907      21950.969      3.3609715     -53996.481    
    321900   2909.6292     -10468.881     -9148.135       14495.008      3.336243      -53838.621    
    322000   3158.1238      29315.787      1720.6263     -5446.6387      3.3509111     -53879.798    
    322100   3284.8805     -10855.976     -22491.817     -24146.554      3.309486      -53963.629    
    322200   3165.0485     -7843.2912      981.88181     -13934.944      3.2928114     -53984.547    
    322300   3268.7301      13689.767      25110.461      27455.598      3.3656984     -54174.601    
    322400   2909.6398     -34031.274     -20182.639      6659.7404      3.3348763     -54050.717    
    322500   2869.5094     -37757.898     -38194.78      -25401.796      3.2578971     -54048.72     
    322600   3149.0261      4695.8553     -15433.878     -8604.4578      3.3332383     -54227.746    
    322700   2837.2973     -21420.409     -4128.3319     -19740.5        3.3739353     -54090.516    
    322800   2839.4507     -15573.863     -6674.6483     -20991.673      3.3767042     -54094.046    
    322900   3061.1493      846.96419     -28470.739      6526.6281      3.344261      -54173.751    
    323000   2886.5684     -24246.446     -29681.225     -14335.495      3.2367877     -54039.846    
    323100   2922.6512     -15750.963      47563.782     -35789.5        3.3226507     -53957.188    
    323200   3273.1728      31548.857     -8064.9262      14482.068      3.3246755     -54032.277    
    323300   3077.4508      3647.2707      6013.8114     -21753.238      3.2811012     -53858.07     
    323400   2998.6172     -35787.092     -11505.498     -12614.398      3.1753215     -53810.308    
    323500   3077.9364     -9064.4265      13498.856     -287.14616      3.2816203     -53897.565    
    323600   3047.1637      17809.556      24966.695      11672.759      3.316772      -53992.354    
    323700   3104.3317     -14576.857      19710.865     -5030.782       3.3026844     -54164.216    
    323800   3018.8918      3704.337       9252.7268      20237.819      3.3917426     -54179.166    
    323900   2876.0824      12544.503      21368.45      -20034.716      3.3309899     -54135.963    
    324000   3161.5859      31809.4        19395.182      40376.569      3.4436997     -54293.365    
    324100   3188.4258      38910.826      39353.012      46883.378      3.4398961     -54303.319    
    324200   2907.122       32231.052      35591.007      37962.349      3.4025026     -54140.261    
    324300   3079.3272      38240.587      44282.158      23068.716      3.4053793     -54214.074    
    324400   2978.8647      17078.619     -6683.2291     -1518.3524      3.259421      -54084.207    
    324500   2943.5427      28208.583      29778.213      23717.292      3.3574505     -53917.855    
    324600   3184.6168     -6079.0104     -14960.059      40634.721      3.4137031     -53950.662    
    324700   3291.0563      8503.4872     -7414.3117      8214.9533      3.4762882     -53979.097    
    324800   2942.5993      2281.9973     -25776.507      8219.1906      3.3340338     -53802.752    
    324900   2903.9098      4489.4623      21066.645     -16841.055      3.3475242     -53835.752    
    325000   2941.332      -23743.652     -2968.0987      10924.897      3.315522      -53935.866    
    325100   3064.2046     -7644.972      -44375.155     -9457.779       3.367603      -54064.812    
    325200   2849.3086      18140.747     -34051.649      2475.0999      3.4526044     -53988.822    
    325300   3147.3604      18791.917      3187.1588     -27099.405      3.568617      -54184.157    
    325400   3092.079      -38561.773     -24144.247     -22144.596      3.4360231     -54202.248    
    325500   3012.9202     -34643.844     -2521.8949     -803.54816      3.4521944     -54228.731    
    325600   3094.4096      677.71122     -9259.9254      8220.0708      3.4282553     -54338.464    
    325700   2772.0395     -2057.2626     -52484.546      16454.549      3.3530593     -54204.381    
    325800   2977.0657      34044.75      -13926.294      7116.5403      3.5346415     -54314.072    
    325900   3035.3788      19365.269     -4829.1527      16539.083      3.4620409     -54355.791    
    326000   3065.7881      6287.5131     -9726.5978      12967.432      3.4025682     -54367.865    
    326100   2940.6346     -26067.523      7606.497      -9389.1533      3.3063377     -54299.418    
    326200   3020.463       30177.899      55222.887      16308.418      3.4817058     -54294.636    
    326300   3318.9616     -5603.2913      469.86241      17653.383      3.4032164     -54306.84     
    326400   3072.8971      41710.515      26914.772      21933.987      3.3228417     -53995.91     
    326500   3319.2667     -2707.1468     -5719.9159     -34829.027      3.2977991     -54078.101    
    326600   3240.5334     -12579.582      14915.676      6897.616       3.2484833     -54051.801    
    326700   3014.5686      20539.959      4508.165      -7174.4144      3.2402595     -54000.32     
    326800   3072.8828      10544.29       5914.5537     -13657.386      3.3494276     -54113.464    
    326900   3184.5551      13495.975      9145.8422      17309.293      3.3675233     -54248.56     
    327000   2966.2964     -13360.348     -22788.283     -20245.694      3.2334504     -54173.506    
    327100   2810.4541     -33533.321     -36348.532     -3528.9173      3.1844446     -54099.64     
    327200   3243.5212      8939.8886     -14908.715     -10027.914      3.3269654     -54352.09     
    327300   2930.2368      28336.739     -26828.29      -10500.155      3.3028576     -54189.498    
    327400   2841.7625     -32264.006      16685.108     -9319.98        3.248452      -54124.882    
    327500   3195.0269     -1984.108      -28513.278     -12499.748      3.3927575     -54234.33     
    327600   2737.367      -9702.0973      57322.8        986.95694      3.443883      -53896.198    
    327700   2947.9416     -2955.3788      28225.77       18559.18       3.3837943     -53959.568    
    327800   3230.3841     -23117.481     -4750.4027     -45355.776      3.2487374     -54085.958    
    327900   3224.8941      11939.589     -8528.1483     -9878.398       3.3260694     -54089.046    
    328000   2935.1906      36655.596      312.71191      646.27285      3.3535786     -53994.144    
    328100   3087.7052      22589.059     -9195.8166     -4208.2865      3.3828282     -54175.69     
    328200   3150.0201      59926.207      18067.551      48293.412      3.4765868     -54300.8      
    328300   2877.4296      22130.786     -5275.007       17477.375      3.3863177     -54216.887    
    328400   2749.0986      20402.785     -64.927591     -5539.6026      3.4047321     -54141.24     
    328500   2798.0044      46117.609      6511.0757      2356.395       3.4655407     -54133.139    
    328600   3041.0294      28162.517      7782.5301      1261.7082      3.4114746     -54226.769    
    328700   2753.3634     -2170.6007     -45214.281     -22588.069      3.245748      -54029.14     
    328800   3007.4213     -13232.86      -19890.086     -24548.819      3.2558382     -54127.198    
    328900   2993.3636     -26672.599     -19651.251     -5797.0536      3.2911253     -54100.433    
    329000   3195.4957     -33412.21      -23386.395     -19964.345      3.2855416     -54223.562    
    329100   3150.7105     -11888.299      19686.907     -16338.005      3.4026793     -54243.346    
    329200   2966.7795      25693.649      14549.654      5994.8281      3.3614859     -54198.18     
    329300   2837.0974      29674.034      28498.51       18510.302      3.4056613     -54164.388    
    329400   2817.1115      8942.9333      3542.9552      50647.963      3.4161471     -54170.221    
    329500   3050.8886     -14419.982     -24170.655     -40334.899      3.3757268     -54312.689    
    329600   2974.8662      1597.1662     -31689.728     -15126.718      3.4837149     -54320.594    
    329700   2911.2765      3365.5456     -2268.1782      21927.329      3.4486615     -54331.292    
    329800   2720.9642      8970.8748      18983.729     -23348.109      3.4942086     -54306.588    
    329900   2759.0688     -18418.656     -16374.092     -19507.715      3.4390748     -54380.038    
    330000   2627.4221     -1395.3107     -9629.6272     -26145.945      3.4538588     -54306.503    
    330100   2830.8391      10856.083     -11319.11      -2350.2231      3.4195642     -54327.254    
    330200   2936.1346     -1059.5736     -9575.1585      8189.5671      3.4495903     -54255.018    
    330300   2920.5595     -38259.042     -40510.487     -34706.68       3.3582724     -54177.364    
    330400   3091.5316     -21615.211     -37050.825     -7771.9074      3.4245132     -54205.369    
    330500   3055.2422      2771.2323      3055.4424     -7916.2781      3.3918118     -54123.045    
    330600   2964.9587     -10719.446      6841.3717     -28751.527      3.3304193     -54028.699    
    330700   3222.7889      14913.223      33100.599      4050.9705      3.4542402     -54152.493    
    330800   2984.1423      18432.427      12591.71      -3846.4967      3.3960706     -54055.829    
    330900   2960.9988     -15751.649      13438.914      28738.689      3.4329687     -54094.032    
    331000   3043.9231     -37099.323     -17299.683     -2293.7324      3.3529815     -54228.365    
    331100   2887.0341     -7566.0795     -2498.957       15013.43       3.4843073     -54269.323    
    331200   2783.2296      32270.072     -4401.7844     -5623.1137      3.506995      -54294.39     
    331300   2780.9234      28072.827     -5409.246       8593.2038      3.5121897     -54314.417    
    331400   2906.112       5714.3593     -5129.1902      23331.183      3.5142041     -54358.764    
    331500   3147.7876      3667.8086     -33986.516     -2715.5381      3.4761743     -54439.867    
    331600   2965.04       -3769.1772      8209.1697     -22832.64       3.4863903     -54288.648    
    331700   2944.452       7964.7593      23380.246     -3257.6745      3.4835942     -54249.387    
    331800   3031.9841      50972.94       17544.484      12816.484      3.5473943     -54270.862    
    331900   3208.8064      35791.739      32117.313      23696.866      3.5358611     -54349.315    
    332000   2999.7909     -11612.93       9608.3125      16178.852      3.4609123     -54223.539    
    332100   3191.7527     -13191.307     -43139.88      -10294.254      3.402503      -54327.339    
    332200   2963.1858      4194.3526      3610.7051      30607.33       3.4316808     -54195.738    
    332300   3037.2766      28069.35      -8252.75        11427.138      3.4422009     -54237.615    
    332400   2860.0854      13373.441      38211.683     -3452.6913      3.4872656     -54130.534    
    332500   2996.4153      33843.123     -7.1919165     -9004.6746      3.4764786     -54167.317    
    332600   3037.932       9825.9894     -22917.916      27410.975      3.4909935     -54127.886    
    332700   3198.889       6909.844      -4547.8846      7439.648       3.5298753     -54202.449    
    332800   3073.6616     -23126.54       33924.305      14155.587      3.5020576     -54154.776    
    332900   2998.8079     -21124.408      22651.207      67291.722      3.5420711     -54175.173    
    333000   3187.0947     -37975.576     -13707.764     -16443.315      3.4246403     -54399.065    
    333100   2896.7637     -48331.33      -30948.707     -11187.552      3.4541538     -54359.036    
    333200   2608.0424     -6547.5407     -861.95853      12256.927      3.462707      -54246.11     
    333300   3141.9923     -13335.907      5058.1953      8704.6173      3.4736176     -54520.553    
    333400   2764.966       50859.284      54880.221      27199.745      3.515564      -54259.172    
    333500   3074.1764     -1949.4659      24527.576      21654.455      3.5182338     -54356.695    
    333600   2781.3646      7442.3698      3916.5545     -4355.6587      3.4635635     -54109.571    
    333700   3215.9988      3642.2135      35853.426      25812.715      3.6099069     -54315.116    
    333800   3058.5664      35030.969      19945.263     -16511.548      3.6229141     -54222.171    
    333900   3047.6023      19801.591      5985.9403      26556.485      3.6446442     -54237.871    
    334000   3073.0145      13521.498      6686.5909      57819.316      3.642126      -54285.781    
    334100   2916.7834     -29227.642      9335.5149      24565.312      3.5159594     -54234.341    
    334200   2682.5175     -20823.316      1816.9896      16872.188      3.4756582     -54131.979    
    334300   2694.1624     -11242.63      -4108.7565     -43705.739      3.453101      -54157.91     
    334400   3058.7191      376.64719      25160.064      5204.4127      3.5668166     -54396.132    
    334500   2864.7718      5464.6551      32583.281      5322.4336      3.6167089     -54320.782    
    334600   2886.6727     -6371.6379     -15035.775     -19815.034      3.5367159     -54332.936    
    334700   2918.1752     -1373.2859     -26311.135     -14475.583      3.4969131     -54315.129    
    334800   2867.409       6105.6537     -8996.6306      32579.083      3.4720883     -54203.302    
    334900   3083.269       4681.5942      12759.427     -12159.168      3.4571749     -54241.959    
    335000   2875.2618      9222.7638      17332.097     -20339.945      3.4781237     -54050.631    
    335100   3117.5489     -17152.428     -10664.877     -27454.685      3.3524843     -54097.095    
    335200   3068.4144      20472.351      2304.1528     -2076.8207      3.4661454     -53991.123    
    335300   3160.9612     -11747.099     -25077.15      -14211.687      3.3523488     -54006.971    
    335400   3170.5882      12510.201      45677.987     -26048.997      3.39677       -54041.813    
    335500   2869.296      -32408.83      -26720.049     -67947.791      3.252529      -53978.49     
    335600   2890.9949     -9622.1256     -11111.028     -28312.174      3.354969      -54017.59     
    335700   2938.875      -9676.8163     -9787.2222     -32698.8        3.2807893     -54064.686    
    335800   2775.8249      20883.92       10334.362      7253.5327      3.3293829     -53983.125    
    335900   3045.3001      27070.717      21.79257       11218.49       3.3100966     -54109.308    
    336000   2840.2297      7867.9421      37552.476     -6838.3018      3.2785408     -53962.423    
    336100   3192.2602     -138.1427       9603.7488     -29667.753      3.2340064     -54105.244    
    336200   2935.7549      25514.909     -17901.707      14166.018      3.3914255     -53908.807    
    336300   3082.2013     -17815.494     -8447.2455     -15523.31       3.3106597     -53966.789    
    336400   2956.0977      24970.047      11771.013      15537.595      3.3588735     -53927.505    
    336500   3193.9438      28801.14       32242.634     -7598.6585      3.3904006     -54152.607    
    336600   3215.3489      31069.946      13933.492      35547.301      3.5288498     -54318.096    
    336700   2835.988      -15538.226     -12576.138      41637.844      3.5018592     -54188.597    
    336800   2696.1092      32361.478     -3007.1879      28277.576      3.5309972     -54142.868    
    336900   3043.7157      8926.1343     -15544.105      2143.7876      3.4878397     -54321.672    
    337000   2977.6977     -14440         -16156.458      17764.762      3.4822553     -54282.839    
    337100   2990.9446     -23881.234      16610.124     -12116.42       3.4545839     -54272.048    
    337200   3132.4974     -11474.252      26654.91      -2473.0049      3.4688689     -54269.814    
    337300   3325.4897     -44419.686     -8231.1694     -28784.193      3.3662522     -54275.016    
    337400   3466.945      -9942.2178      54553.956      6238.5706      3.4641559     -54272.509    
    337500   3079.6827     -8144.3938      31146.627      4144.2825      3.4649993     -54047.876    
    337600   3324.0372     -4034.6418      13291.961      10798.407      3.5753678     -54230.235    
    337700   3160.3966     -4808.1341     -22324.164      810.60244      3.5424658     -54314.168    
    337800   2797.8949     -39884.392      1248.9811     -21724.003      3.4834064     -54249.043    
    337900   2912.2734     -13168.144      20767.152     -3812.3603      3.4809924     -54354.348    
    338000   2744.0963     -7214.1032     -2453.3225      5247.5882      3.510321      -54249.96     
    338100   2748.4836      1539.5315      12839.812     -18646.412      3.4168293     -54188.21     
    338200   2911.2576     -11986.787      13256.971     -10221.913      3.4242976     -54185.529    
    338300   2944.4988      493.1205      -1810.1917     -4090.1479      3.34127       -54121.661    
    338400   2884.6042      26223.277      12555.358      8716.1705      3.4648956     -54040.38     
    338500   2964.7744      32609.153     -9881.2917      1110.1894      3.3992872     -54063.536    
    338600   2973.5713      1346.4942     -3779.4142     -20086.238      3.3744323     -54064.44     
    338700   3203.5073     -16427.064      3486.4645     -22464.725      3.4347618     -54197.844    
    338800   3036.6695     -39582.346     -24761.879      6828.8789      3.4705825     -54110.257    
    338900   3221.4413     -3233.7774     -34880.174      23095.808      3.5235394     -54312.99     
    339000   2703.2406      36076.839      37529.098      29047.038      3.5158284     -54201.753    
    339100   3049.0699      2874.1684     -319.48305      1562.3868      3.5331651     -54486.335    
    339200   3015.556      -15729.889      7308.466       1356.288       3.4746074     -54482        
    339300   2804.4889      3686.7902     -3075.1768      18866.927      3.5180358     -54349.205    
    339400   3027.3861      3980.6195     -6473.6444      8457.9806      3.5077864     -54425.137    
    339500   3081.3697     -1874.5637      13775.85       7118.6885      3.5381979     -54376.936    
    339600   3140.6128      42968.792      8656.9292     -6838.9508      3.5576941     -54324.119    
    339700   3153.5143      19692.912     -3850.9858     -1607.2565      3.5806108     -54269.577    
    339800   2875.4265      349.12704     -16829.503     -8410.1927      3.4455034     -54106.315    
    339900   2906.4765      16054.462     -3192.3107      9646.9868      3.5405161     -54092.279    
    340000   3251.3708      36402.058     -27856.201     -32034.816      3.5481405     -54270.703    
    340100   3070.2741     -17418.761     -4427.6025     -8982.9734      3.4944613     -54188.702    
    340200   3037.7264      11319.097     -13203.492      27321.015      3.5192951     -54199.372    
    340300   2841.0063     -20672.676      16010.922     -34899.219      3.3879482     -54123.398    
    340400   2987.1713     -54627.66       22167.062     -10185.137      3.4100299     -54186.962    
    340500   2874.9282      11225.437      7408.1709      6237.3589      3.4656323     -54103.424    
    340600   3093.9134     -26546.161      14654.318      13633.008      3.4925682     -54214.061    
    340700   3265.8217      8928.511       2747.3628     -25858.142      3.4166149     -54296.701    
    340800   2953.3983     -12185.742      22354.446     -48922.928      3.4174257     -54176.429    
    340900   2975.7154     -5134.721       26537.257      32418.652      3.5083687     -54307.736    
    341000   2953.7328      45354.283     -14076.875      8889.8603      3.5881245     -54430.569    
    341100   2738.4971     -9154.8792     -10080.395     -16446.425      3.484916      -54379.172    
    341200   2755.1618     -15651.452     -16585.128     -39966.832      3.3956581     -54386.969    
    341300   2814.1248      13462.481     -29060.382     -21695.714      3.4825145     -54387.457    
    341400   2976.9991     -25368.057      1872.2714     -24067.529      3.5334633     -54383.392    
    341500   2989.5109     -20919.903     -56689.648     -42069.293      3.4433367     -54312.17     
    341600   2930.9886      18129.001      5120.368      -13681.554      3.5145293     -54227.232    
    341700   3028.433       39296.837      9352.215       1954.1109      3.6081906     -54248.826    
    341800   3039.9266      15177.569      6708.2331     -4424.3238      3.5365142     -54260.622    
    341900   2938.9744     -3986.1282      3650.6641     -17523.852      3.4954691     -54231.833    
    342000   3142.1758      15172.814     -25204.67      -15501.627      3.4893382     -54354.326    
    342100   2709.2834     -12081.277     -18631.408     -23836.24       3.4509603     -54144.452    
    342200   2972.4748     -23469.399     -10455.241     -71800.922      3.5104856     -54281.133    
    342300   3026.7464     -54599.556     -35049.276     -17636.647      3.4351024     -54323.361    
    342400   3003.5704      17961.881      39412.035      16460.169      3.5757964     -54337.548    
    342500   2991.5565      12684.438     -23112.466     -9990.2822      3.4796068     -54373.823    
    342600   2819.5084     -2155.0879     -15307.934     -22148.113      3.4000134     -54287.601    
    342700   2872.0315      25238.392     -1128.5454     -1417.2696      3.4270217     -54276.075    
    342800   3077.4491      10011.267     -2647.2058      18533.625      3.4769404     -54319.148    
    342900   3075.4581      6120.3361     -6087.4531     -4125.3761      3.4171117     -54213.696    
    343000   3180.7461      32787.152      21165.692     -5947.1869      3.4065354     -54198.095    
    343100   3333.3341      35953.189      38822.321      21930.912      3.5948647     -54248.739    
    343200   3093.4242      28959.834      16543.128     -5862.6368      3.5055863     -54130.444    
    343300   2966.3548      349.30983      4109.4436      3719.081       3.482101      -54107.31     
    343400   3118.922      -18773.223      3927.8381      18071.947      3.4693865     -54267.23     
    343500   2748.3127     -3784.5746     -32510.246      9847.7849      3.4871339     -54184.297    
    343600   2996.6211     -28351.528      10344.295     -24841.049      3.5166217     -54415.105    
    343700   2723.1576      5689.8698      35592.037      20302.069      3.576347      -54298.488    
    343800   2868.0333     -7490.9909      53645.065     -4755.1332      3.6448015     -54362        
    343900   2968.138      -14202.237     -10842.722     -12482.605      3.5379942     -54329.133    
    344000   3069.0428      446.7605      -7509.0245     -22089.273      3.5228508     -54271.558    
    344100   2918.6136     -28718.268      34826.773     -15016.994      3.5099802     -54018.245    
    344200   3195.0688     -17962.974     -20590.831     -50925.001      3.3365606     -54008.989    
    344300   3343.4923     -8349.839      -19059.382      2371.8816      3.3431544     -54049.738    
    344400   3051.8864     -5594.8563     -10011.085     -6988.9708      3.292388      -53923.145    
    344500   3050.0429     -12247.776     -14979.127     -13270.958      3.3745512     -53989.096    
    344600   2912.4026      2212.5063      3323.9968      14524.507      3.4229936     -53997.428    
    344700   2867.6931      14330.998      50819.627      85700.57       3.5295555     -54039.164    
    344800   3109.9431      3212.4082      24377.766      8314.7001      3.3955501     -54217.056    
    344900   3122.3712      6996.4238      28602.211      1498.5923      3.4176755     -54264.054    
    345000   3009.0623     -14090.856     -24099.4       -22189.927      3.3281275     -54243.944    
    345100   2998.2227      13564.929      24999.992     -25741.629      3.4759303     -54280.507    
    345200   3118.481      -11905.134      15891.715     -9915.2608      3.4079103     -54416.872    
    345300   2696.6856      1356.9433     -19671.509     -17216.861      3.4414331     -54309.914    
    345400   2885.6934     -51053.271     -29535.983     -15621.59       3.3332474     -54493.574    
    345500   2745.6593      5265.012       4992.6036     -4921.8176      3.4380489     -54439.999    
    345600   2906.3112      18866.724     -29839.558      46858.59       3.5151582     -54492.506    
    345700   2916.4859      45673.847     -12319.755     -2505.2342      3.549824      -54371.668    
    345800   3052.6712     -4627.5734      24166.815     -4867.9819      3.4713961     -54321.197    
    345900   3118.7853     -1950.5791      43342.068     -24901.305      3.4397225     -54308.438    
    346000   3027.584      -16639.091      13203.872     -15696.299      3.4232107     -54240.788    
    346100   3129.2766     -22562.003     -7888.6027     -854.74282      3.3670276     -54304.201    
    346200   2883.1597      9574.4316      25359.624      37301.945      3.4755549     -54170.324    
    346300   2966.8105      10926.09       13334.25       34568.827      3.453931      -54214.296    
    346400   2999.0227     -4169.2565     -26631.186     -15732.966      3.2498429     -54184.143    
    346500   2862.1549     -5950.1726      981.96697      43634.354      3.3420167     -54028.184    
    346600   3270.7827     -1649.9699      43373.305      50602.83       3.4365126     -54159.543    
    346700   3419.3512     -27032.254      20064.86      -29385.811      3.2358597     -54184.915    
    346800   3106.8712     -29062.531     -13779.076     -27341.729      3.2583159     -54011.099    
    346900   2901.7378     -9735.5135     -25382.384      22670.84       3.37137       -53956.343    
    347000   2972.3854     -13151.988     -3503.5503      7880.4976      3.3874497     -54125.873    
    347100   2673.4239     -57348.007     -28085.745     -30055.405      3.2404414     -54108.076    
    347200   2810.9229     -29097.348      22926.664     -20234.464      3.4644118     -54233.231    
    347300   2893.8968      1377.3874     -26952.927     -7135.9002      3.5090378     -54273.788    
    347400   2784.7379      19930.144     -6737.2851     -19056.742      3.5296313     -54175.805    
    347500   2887.0368      21384.835      15015.105     -18623.796      3.5093232     -54150.98     
    347600   3100.2684      2379.013      -34433.923     -38906.931      3.4741761     -54179.025    
    347700   3036.9896      3936.2049      19374.811     -40564.777      3.5577207     -54100.325    
    347800   3074.8502     -52727.554     -33687.26      -2373.5943      3.5139294     -54159.666    
    347900   3048.6975      15947.645     -34062.641     -37832.755      3.514314      -54197.689    
    348000   2829.8264     -16143.22      -23266.698      8209.3636      3.5120134     -54144.483    
    348100   2993.7193     -4270.2072     -27153.616     -25803.064      3.5273441     -54279.01     
    348200   2878.0343     -38639.211      8916.0932     -50745.76       3.4869183     -54252.552    
    348300   3017.1321      390.91492     -3702.7875     -3745.9749      3.5833998     -54340.131    
    348400   2856.1138      30819.232      7665.1622      1836.3856      3.6221197     -54269.182    
    348500   2886.5692      14866.006     -19351.526     -18218.979      3.508943      -54289.416    
    348600   2619.2129     -24714.06      -13841.46      -10984.885      3.4776084     -54138.782    
    348700   2873.1022     -29486.554     -31769.1       -23435.513      3.4450471     -54266.096    
    348800   2774.5713     -22522.236     -49921.402      1348.4759      3.4217531     -54176.858    
    348900   2923.983       1079.9072     -15037.589     -526.00007      3.4225803     -54214.648    
    349000   3197.3846      14126.49      -14287.997     -12974.743      3.4931177     -54333.091    
    349100   2868.4082      9251.7104     -321.63786      14146.91       3.4828894     -54121.639    
    349200   2962.5717      3601.995      -34149.14       2343.2967      3.4504022     -54172.813    
    349300   2744.9005      9738.9828     -8844.138      -10433.12       3.4058357     -54037.529    
    349400   3251.7923     -13327.909      13572.174     -7110.058       3.4912088     -54282.228    
    349500   3165.8272     -30418.919      21403.76       19145.803      3.5209294     -54258.502    
    349600   2945.6757     -23856.187      2465.0415      36953.995      3.5591884     -54192.549    
    349700   2953.7102      26253.388      18609.174      61576.778      3.5349215     -54246.753    
    349800   2810.982       44479.837      5329.6447      13549.178      3.5234453     -54214.857    
    349900   3027.0625      39486.697     -2988.3823      14696.755      3.6155761     -54387.087    
    350000   2931.9962      27721.066     -19151.026      29145.783      3.5391821     -54423.611    
    350100   2556.9811     -2990.9286     -2884.7144      1564.011       3.485246      -54311.853    
    350200   2691.5853      14390.195      9079.08        8251.8683      3.6157156     -54417.157    
    350300   2836.9593     -30394.219      14335.416      10548.276      3.551294      -54477.271    
    350400   2978.1595     -5703.8341     -26114.378     -30163.251      3.5216904     -54439.669    
    350500   3078.8308     -8714.4012     -29594.613      6081.1671      3.5610637     -54340.324    
    350600   2829.3782      11677.395     -53924.975     -30245.056      3.5058725     -54132.001    
    350700   2877.5967     -2271.8004      10298.857      7358.9926      3.5032        -54135.668    
    350800   2838.6289      52233.777      26813.369      13893.181      3.5526033     -54083.701    
    350900   3283.934       15215.033      9555.9318      19243.555      3.4792086     -54318.799    
    351000   2978.2524     -11816.213      34091.153     -2073.9449      3.4845446     -54131.024    
    351100   3236.9645     -8561.3223      9202.3646     -19522.379      3.47111       -54259.879    
    351200   2905.3635      6691.716       7753.9817     -16552.061      3.3770472     -54098.081    
    351300   3144.9013      9917.7023      12090.978     -8689.8917      3.3817322     -54283.811    
    351400   3170.9666      36653.419      10437.237      5222.4632      3.3934557     -54413.983    
    351500   2724.3187      25550.535      24447.551      3821.4097      3.4675637     -54293.881    
    351600   2752.8898      24691.802     -5706.629      -11593.749      3.4392711     -54348.553    
    351700   2741.4381     -7392.618      -13760.63      -22918.495      3.4210027     -54328.926    
    351800   2750.24       -36316.317     -25925.879     -16130.546      3.4165927     -54276.266    
    351900   2963.7749     -7439.2512     -8071.4425      10056.269      3.4803108     -54279.067    
    352000   3057.7308     -18197.034     -6650.9332      18975.642      3.5067519     -54257.251    
    352100   3246.5747      2975.9774      34683.54       2080.3301      3.6000277     -54329.583    
    352200   3405.2539     -17946.84       12594.163      28560.658      3.5144852     -54424.866    
    352300   3002.0218     -16421.005      22107.265     -2214.2648      3.4651184     -54241.757    
    352400   3021.2527     -7650.0243     -7600.2301     -32646.742      3.3743835     -54303.214    
    352500   2973.8444     -18967.848     -5567.7742      4884.0995      3.4117048     -54338.93     
    352600   2808.2385      1772.9073      7277.4888     -27559.838      3.5127201     -54251.717    
    352700   2615.9068      1418.0928     -18139.324     -3687.9373      3.5103414     -54122.691    
    352800   2953.3619     -6069.5542     -22552.405     -9630.5228      3.4611636     -54170.893    
    352900   3352.9067     -10293.266      15027.495      25052.217      3.4352491     -54209.675    
    353000   3075.6059      3459.6332     -10676.785     -7469.3057      3.364284      -54014.898    
    353100   3070.2004      29283.045     -12525.502     -14531.138      3.4585156     -54027.234    
    353200   2966.9625      22020.034     -1164.89        13649.71       3.4382277     -54030.298    
    353300   3088.3109      6928.3203     -34530.624     -9223.052       3.4811038     -54178.372    
    353400   2844.9588     -2376.6137     -7089.7829      11448.753      3.5153598     -54139.366    
    353500   2856.2153     -17661.765     -33129.979      30488.675      3.4226655     -54217.224    
    353600   2785.6722     -5437.6056      2069.2654     -3060.453       3.4855006     -54204.446    
    353700   3057.8323     -18926.988     -19069.301     -26257.556      3.4883101     -54351.754    
    353800   2989.3048     -30539.096      16426.594     -16844.672      3.4796729     -54288.934    
    353900   3062.8256      33065.763      4352.9364     -13695.576      3.4441501     -54224.808    
    354000   3264.3777      3177.2649      6059.3138      240.14473      3.4897635     -54148.839    
    354100   3249.4915     -11058.473      9384.3018     -11812.552      3.3607154     -54066.778    
    354200   3170.5041      10094.079     -11025.543     -8424.4135      3.3491734     -54032.457    
    354300   2926.5785      2.431153      -26048.397     -21958.215      3.2964101     -53941.117    
    354400   3243.6377     -3678.9834      18121.488     -1296.7083      3.4535139     -54209.224    
    354500   2996.1936      30148.705      28874.427      47.312618      3.5533131     -54178.453    
    354600   2731.283      -9828.1071     -10452.344     -12295.158      3.4298181     -54103.385    
    354700   2800.897      -21487.145     -13207.566     -9340.0736      3.4523285     -54156.77     
    354800   2874.5832     -64155.338      18134.21       9466.6855      3.4193864     -54192.049    
    354900   3087.282      -11966.162      19864.262      5086.1684      3.4591918     -54289.685    
    355000   3224.0379      21827.068     -2003.7213      510.52303      3.4136075     -54362.746    
    355100   3033.8091      10425.593      17512.95      -9706.399       3.3574901     -54271.045    
    355200   3095.3176     -23333.201      20545.499     -7223.0431      3.3138887     -54297.228    
    355300   2987.5826      3406.5075      419.32266      5178.3964      3.3035636     -54250.221    
    355400   2966.7801      7024.5808     -4195.1109     -132.7949       3.3230187     -54212.291    
    355500   2937.9951     -56157.889      6747.5529     -39301.941      3.2838435     -54129.454    
    355600   2986.7622      20967.944     -16707.833     -15655.218      3.3312458     -54068.099    
    355700   2854.262       8110.8757     -4406.2328     -11985.31       3.2957426     -53929.582    
    355800   3063.8118      2333.0181     -8727.0988      27083.766      3.4153445     -53985.398    
    355900   3388.4165     -51245.943     -49290.184     -23954.414      3.3021103     -54085.003    
    356000   3041.3357     -7706.9613     -23567.45      -1418.3596      3.2987818     -53911.633    
    356100   2876.4117      174.67721      4988.4163     -2599.1267      3.3111217     -53891.381    
    356200   3047.9361      10088.737     -31424.686     -14054.202      3.2898607     -54105.037    
    356300   3017.7072     -19437.262     -3885.3933      2198.6673      3.3743505     -54160.535    
    356400   2719.7961     -3504.9383     -20119.123      5195.8904      3.3095695     -54047.967    
    356500   3114.5381      37788.936      10052.748      24281.037      3.3909391     -54282.027    
    356600   2827.5196      12945.261     -11798.467      13529.29       3.3675262     -54119.171    
    356700   2893.2738      8330.3505     -43268.89       4846.9438      3.3764697     -54121.712    
    356800   2934.6811      21499.443     -26977.449      8120.4672      3.4571256     -54121.958    
    356900   3008.2992     -20649.737     -28160.074     -5722.8737      3.3233326     -54154.436    
    357000   3041.5099      2895.0665     -20512.336      15543.248      3.4005121     -54173.541    
    357100   2805.128       23113.209      8321.5921     -665.85437      3.3565563     -54025.817    
    357200   3080.29       -8507.0574     -7575.8377     -5715.6636      3.4034849     -54142.903    
    357300   3011.7273      36718.48       6004.4489      7667.3728      3.4070039     -54065.179    
    357400   3042.4417      5726.0761      18928.07       20021.524      3.4371879     -54054.94     
    357500   3144.5997     -39921.952      20125.183      5685.4368      3.4198344     -54075.262    
    357600   2979.6783     -27581.47      -13960.312     -7518.133       3.419727      -53975.22     
    357700   2944.9218      33992.767      7973.8939      33664.822      3.322863      -53938.762    
    357800   3269.9054      29189.081     -8574.1479      2272.191       3.3173554     -54101.391    
    357900   3279.5576     -1192.3621     -43086.556     -8047.5668      3.2804874     -54112.965    
    358000   2895.0449      9906.3973     -9702.6515     -16464.553      3.3020386     -53939.782    
    358100   3059.2795      7169.0443      8453.267       41134.327      3.413471      -54069.288    
    358200   3368.5571     -4576.9576      27971.688      27868.876      3.4724083     -54297.346    
    358300   2948.2831      4159.5438      12346.245      5359.9534      3.4621963     -54196.28     
    358400   2830.6859      7138.1813      27253.865     -15532.862      3.505715      -54221.128    
    358500   2524.7341     -6382.335       19160.384     -24213.402      3.5031586     -54074.018    
    358600   3194.6397     -12960.081      14307.35      -27476.1        3.4111213     -54418.103    
    358700   2982.474       12173.415      7177.8323      15573.003      3.4095541     -54264.557    
    358800   2853.0452     -1705.3024     -14452.094     -31139.811      3.33538       -54149.884    
    358900   3015.3305      19301.67      -935.57144      26977.208      3.4895306     -54152.748    
    359000   3056.6607     -9191.8042      23537.215     -3653.6081      3.5155377     -54074.192    
    359100   3318.6511     -31392.32      -24388.24       24269.143      3.5221122     -54096.146    
    359200   3130.9968      755.16241      27991.86       19679.755      3.4348729     -53860.64     
    359300   3423.7022      9066.5152      14285.031     -4255.7985      3.3874529     -53930.859    
    359400   3307.9285      39654.488      15294.262      30143.517      3.4661766     -53781.226    
    359500   3707.1467      1438.6248      35106.32      -11061.951      3.446651      -53880.208    
    359600   3451.5817      23783.032     -7059.5304      14718.852      3.4354349     -53702.585    
    359700   3577.0862     -6807.4565     -12523.795     -19042.514      3.3816966     -53914.02     
    359800   3145.8271     -15175.429     -13693.676     -17281.949      3.518605      -53853.142    
    359900   3306.9271     -9423.0582      11801.259     -25099.752      3.4839756     -54070.686    
    360000   3047.5454      17555.961      16322.704      12147.868      3.4732923     -54043.209    
    360100   3087.6883      3600.1451      22708.291      917.32601      3.3793346     -54165.526    
    360200   2898.4368     -9331.2323     -18757.682     -1840.0811      3.4047235     -54126.921    
    360300   2833.6295     -5686.4        -39109.336     -17307.311      3.2785767     -54129.06     
    360400   3035.2408     -7591.8519     -1471.7712      24298.096      3.3690741     -54244.138    
    360500   3018.2373     -28444.841     -1555.6339     -21641.038      3.3788021     -54216.917    
    360600   2930.0112      890.45839      9491.4477     -8786.6727      3.3752652     -54135.183    
    360700   3063.8624      31702.25       4467.5971      3516.7419      3.4004197     -54128.14     
    360800   3088.0399      21263.652     -37197.969      51051.676      3.3637025     -54025.606    
    360900   3134.6686      18714.895     -7988.8868      13069.354      3.2834335     -53975.36     
    361000   3021.9191      30368.286      22362.991      2325.1441      3.4117404     -53905.793    
    361100   3103.0661     -12781.869     -28173.691      19671.568      3.2951524     -54000.911    
    361200   3271.3969      3040.5107     -5151.3         13270.294      3.4672094     -54243.03     
    361300   3011.7612     -6400.8984      21011.331      25719.993      3.5084796     -54240.507    
    361400   2890.8608      32129.449      17823.779      25597.534      3.4833073     -54210.789    
    361500   3145.0402     -10051.092      10072.066      4980.7865      3.3999035     -54329.044    
    361600   3153.8508      11751.331      13538.929      5254.8513      3.5179187     -54300.417    
    361700   2979.7684      19155.226      21605.216     -1961.4025      3.5170947     -54201.328    
    361800   2763.7384      17950.001     -170.1568      -26433.897      3.4718919     -54095.441    
    361900   2975.607      -11701.389     -7096.358      -32580.908      3.3823462     -54246.595    
    362000   2949.2612      31305.685     -10418.321     -13835.018      3.4790599     -54260.55     
    362100   3054.3415     -2424.6333     -34906.062     -23511.033      3.4490095     -54372.589    
    362200   2887.5291      26420.229     -19940.596      4320.8057      3.4930696     -54353.324    
    362300   2743.1108      11266.863     -14257.219      17730.928      3.4675965     -54329.413    
    362400   2865.8773      281.78708      23799.851     -7198.0607      3.519409      -54430.263    
    362500   2969.3141     -32176.313      12943.629     -23368.443      3.4515197     -54488.038    
    362600   2837.8249     -28798.992     -33245.242     -21964.293      3.3625487     -54364.906    
    362700   2968.8024     -9846.9461      8580.6437      8183.7444      3.4759272     -54333.873    
    362800   2985.6797      4272.6048      12405.592      37838.187      3.5386137     -54242.64     
    362900   3000.5343      39947.261      8614.79        8695.764       3.471737      -54154.098    
    363000   3060.3322      27442.882      5563.9096      40265.149      3.5145176     -54144.506    
    363100   3155.751       8568.2899     -32928.815     -38903.722      3.4037276     -54189.833    
    363200   3298.3407      42808.951      41188.74       19374.171      3.5164135     -54258.828    
    363300   3097.4265      49196.163     -5638.1286      32543.653      3.4364839     -54175.022    
    363400   2963.4188      52715.857     -470.43321      14614.265      3.4425258     -54180.627    
    363500   2692.9905     -16401.336     -3365.9082     -26470.898      3.3566634     -54140.131    
    363600   2810.5918     -21874.161     -11668.6       -23367.51       3.3815815     -54321.116    
    363700   2753.2256     -6041.7549      3152.5472      27779.999      3.4667584     -54348.882    
    363800   2864.6937     -21595.614     -8792.8682      43164.576      3.5475639     -54406.188    
    363900   2965.4219      2748.6246      14669.346      11118.939      3.5808122     -54414.86     
    364000   2851.0127     -22841.673     -7846.1041     -19079.21       3.4648994     -54272.942    
    364100   2972.8938      295.92529     -22081.351     -17816.58       3.4588437     -54195.141    
    364200   3125.0376      10404.879     -40891.656     -3285.073       3.4551715     -54162.692    
    364300   2916.913       4890.5443      15134.735     -24414.34       3.5293413     -54020.519    
    364400   3080.3985     -26361.788      13546.285      1187.3334      3.5733892     -54089.985    
    364500   3125.838      -34943.406      62632.908      18591.421      3.5382585     -54123.627    
    364600   2881.5506      19278.589     -1332.7296     -837.9535       3.4625668     -54042.242    
    364700   2922.0622     -1457.2732      7503.0686     -24169.393      3.4167151     -54128.86     
    364800   2737.5838     -1692.6775     -17368.268     -37795.525      3.3673509     -54081.409    
    364900   2881.2087      21306.143      17508.62      -21303.664      3.4663246     -54187.85     
    365000   2898.5581     -20739.93       3502.3948     -19712.752      3.427936      -54226.35     
    365100   2924.7724     -21777.729     -14324.987     -7776.9928      3.4892091     -54247.658    
    365200   3047.3901     -25749.305     -28971.189     -31238.703      3.5529739     -54356.668    
    365300   3086.9725     -15882.078     -32114.337     -5468.4404      3.5580589     -54465.683    
    365400   2752.7047      9858.6748      20936.02      -11779.329      3.556172      -54373.988    
    365500   2689.7979      21273.813     -21961.955      38705.602      3.5851228     -54376.475    
    365600   3047.5726      1425.421       16438.337      7436.9428      3.5956427     -54542.801    
    365700   3031.4603      7656.6013      6814.1585      30987.032      3.6402548     -54447.058    
    365800   2807.3149     -52068.436     -26805.623     -22276.287      3.4963287     -54229.411    
    365900   3008.9808     -32139.937     -49437.59       5899.718       3.4762471     -54277.82     
    366000   2920.9776     -42992.869     -2974.679      -15824.268      3.4855307     -54208.451    
    366100   2944.5899     -27089.828     -17966.775     -11277.722      3.4631515     -54217.107    
    366200   3077.312      -12234.091     -14690.924      13551.152      3.4830698     -54311.006    
    366300   3110.2455     -257.67357      2613.0429      9453.184       3.5357486     -54356.588    
    366400   2989.8652      8669.4113      22730.86      -2682.5022      3.5562695     -54293.403    
    366500   2840.6353     -3647.0011      36630.401     -15035.917      3.5102979     -54192.35     
    366600   2975.4894      2336.3318      9499.8556     -4309.0305      3.4210787     -54160.054    
    366700   3018.5487      24538.838     -17910.584      19709.844      3.4015706     -54036.058    
    366800   3293.0835      42502.122      13743.502      5684.3394      3.5225164     -54089.851    
    366900   3101.5086     -33703.08      -8590.527       17910.729      3.413896      -53972.301    
    367000   3264.5307     -23560.026      10450.095      29894.254      3.4727719     -54095.175    
    367100   3243.216       17192.86       4888.0772      14259.989      3.4685119     -54174.424    
    367200   2952.5474      24648.449      10849.776      22805.848      3.5027162     -54105.289    
    367300   3092.3109     -1322.0829      3994.046       16905.558      3.4906332     -54254.875    
    367400   2945.0302     -34314.677     -41398.288     -9545.2937      3.3817011     -54229.341    
    367500   2912.5587     -11504.095     -41940.17      -12610.99       3.4315243     -54224.28     
    367600   3140.0459      14250.434      13605.639      1234.4712      3.4544338     -54348.08     
    367700   3064.7067     -3139.1248     -3545.5982     -3804.054       3.4762185     -54311.39     
    367800   3059.2639      9817.0485      49270.489     -8982.6432      3.5306262     -54319.689    
    367900   2949.2153     -29556.528     -2559.5478     -7516.8444      3.3994114     -54288.118    
    368000   2983.4799     -34053.175     -15891.379      354.29641      3.3482946     -54335.821    
    368100   2776.2829     -1352.829      -5061.0823      7919.8845      3.4544446     -54272.678    
    368200   2731.6332     -13453.691     -2866.9771      16034.085      3.4414829     -54346.917    
    368300   2637.3024      14916.986      24566.184     -25606.29       3.4758608     -54407.663    
    368400   2629.3911      9603.3795     -27034.157     -15817.651      3.4724375     -54430.117    
    368500   2711.2879      7567.0371     -6406.3569      3711.4046      3.5323782     -54426.985    
    368600   2867.0848      16000.563     -8468.1052     -9257.344       3.5759957     -54382.449    
    368700   2842.1073     -11041.27      -6831.1261     -18765.092      3.5470866     -54259.583    
    368800   3040.2565     -42956.147      16239.358     -29553.534      3.5204111     -54317.007    
    368900   2793.4314     -14395.038     -34870.901     -48013.136      3.5067749     -54157.683    
    369000   3095.6108     -30194.448     -15485.509     -20303.909      3.5452613     -54311.229    
    369100   2797.5684      29382.728     -18364.62       12450.584      3.5392187     -54121.522    
    369200   3075.075       4067.15       -10424.823      22886.284      3.5706276     -54231.022    
    369300   3059.6802      32136.841      2118.8306     -12484.622      3.5228477     -54156.332    
    369400   3281.8101      7780.9317     -2940.1354      20620.647      3.5149959     -54218.087    
    369500   3302.2505      8837.4609     -22702.114      13320.248      3.550958      -54150.509    
    369600   3296.6209      608.94328      28559.383     -18413.368      3.5419214     -54130.696    
    369700   3003.8937      4892.3112     -23900.094     -23239.022      3.5472822     -54066.668    
    369800   2899.6805      17664.276     -29674.614     -22448.794      3.5399712     -54154.807    
    369900   2943.6677      26513.837      39937.481      15049.449      3.603494      -54277.369    
    370000   3255.7412     -10896.798     -1667.8249      3804.0689      3.5668558     -54501.669    
    370100   3078.7986      13.510402      18154.768     -10385.817      3.61607       -54435.06     
    370200   2815.6381      12028.05      -5471.8931      7369.6734      3.510497      -54275.762    
    370300   3141.1977      12594.35      -22717.952      8104.8309      3.5320837     -54390.16     
    370400   3203.3906      21501.13      -14615.032     -2637.7656      3.4147239     -54335.821    
    370500   2934.5538      20138.672      117.85059      12261.366      3.3760028     -54100.271    
    370600   3035.431       3366.6315     -1185.8223      21331.318      3.4447025     -54100.569    
    370700   2835.5046     -14398.964     -3341.086      -732.45921      3.3303895     -53975.097    
    370800   2896.9674     -14376.304      30200.526     -12103.654      3.357867      -54002.013    
    370900   3113.014       20409.303      8379.5105     -1561.2966      3.4292182     -54128.375    
    371000   2910.5125      538.81441      20736.918     -11530.958      3.4434218     -54046.506    
    371100   3106.2695     -1976.1486     -22538.711     -15445.18       3.4835661     -54200.887    
    371200   2897.9027     -42529.724     -40564.886     -11752.155      3.4033939     -54143.805    
    371300   3006.6167     -13556.478      4458.7281     -48978.984      3.453664      -54266.447    
    371400   3052.4781      15791.867     -25499.457     -9687.5554      3.442296      -54373.617    
    371500   2889.6659      1115.8405     -7372.9478      30149.108      3.491331      -54376.972    
    371600   2873.081       11670.054      24132.304      11513.313      3.6346226     -54472.466    
    371700   2688.9508      38044.588     -18784.954      5418.3052      3.6143855     -54453.176    
    371800   2760.4953     -3951.2732     -1711.3482     -9898.0006      3.6483389     -54620.778    
    371900   2709.2128     -17597.894     -21222.171     -21483.313      3.6118447     -54684.312    
    372000   2391.6617     -3200.4369      399.0312       10863.562      3.6773499     -54508.744    
    372100   2816.598      -39371.402     -27575.164      4167.1959      3.5817232     -54616.6      
    372200   2700.8375      11562.325      22371.733      13835.468      3.57996       -54394.576    
    372300   2840.2457     -17502.555      5655.9122     -14603.65       3.496461      -54410.097    
    372400   2996.9179      779.85787      7605.904       14531.284      3.4921105     -54422.101    
    372500   2893.5694     -557.36954      143.35257      21158.203      3.4590759     -54269.573    
    372600   3058.9978      10051.054     -14216.642     -6279.7635      3.4237875     -54250.68     
    372700   2927.8791     -35255.148      8705.7483     -24858.944      3.334319      -54100.737    
    372800   2923.6271     -497.77694     -29785.685     -31835.172      3.3117358     -54054.205    
    372900   3071.8131      3806.3656     -53274.24      -30132.461      3.2800559     -54095.047    
    373000   3205.0888      13673.494      1864.8367      8556.0831      3.4505618     -54156.577    
    373100   3093.3375     -10481.271      9176.0622     -1454.1372      3.4301041     -54180.034    
    373200   3174.7201      20442.008      6276.3527      22866.528      3.5327096     -54342.881    
    373300   2998.9853     -7096.245      -27605.536      9595.2835      3.433585      -54331.55     
    373400   3064.9338     -18512.358     -18620.626      3980.7374      3.4963071     -54403.377    
    373500   2860.8585      10021.481     -26379.188      30181.085      3.5037261     -54307.817    
    373600   3027.4877      10425.269     -27523.765     -8994.8664      3.4611604     -54386.097    
    373700   3079.2549      7061.5349     -18679.553      24635.654      3.5355109     -54386.608    
    373800   2867.1537      28800.98       22954.439      13372.034      3.4937305     -54210.381    
    373900   3245.6565      4539.4094     -4664.8673     -26712.968      3.4617516     -54335.02     
    374000   3181.2533     -40075.42      -13759.319      17679.186      3.5388068     -54246.78     
    374100   3187.4237      231.9329      -26246.635      24756.392      3.495427      -54244.561    
    374200   3230.3328      16076.751      38236.12       30678.608      3.6551893     -54290.621    
    374300   3044.2195      1605.1577      2873.9852      30241.276      3.4618293     -54239.357    
    374400   2648.9103      8826.3654     -2596.6351      10518.731      3.4338024     -54052.657    
    374500   3029.0053     -13334.575      5923.5036     -3274.2749      3.4703746     -54268.161    
    374600   3047.658       24056.18       20042.399      52025.564      3.5175845     -54288.664    
    374700   2623.6367     -6174.6074      23481.908     -9853.2428      3.437442      -54029.894    
    374800   3137.3437     -15562.482     -11062.606     -13593.241      3.4062517     -54208.115    
    374900   2915.0472     -16928.866     -33008.308      7462.304       3.3080385     -53951.665    
    375000   3159.9429      19670.761      5354.3744     -6442.7698      3.4704252     -53983.38     
    375100   2956.4029     -909.41751      2784.5608     -32948.812      3.2956532     -53860.572    
    375200   3184.9434      10899.235      10127.11      -18996.748      3.3592641     -54007.994    
    375300   3112.3483     -1448.6641     -21287.925     -11255.635      3.1905492     -54031.579    
    375400   3011.2955     -2784.1435     -9026.915      -1437.4028      3.1868853     -54055.294    
    375500   2910.5133      6012.0491      12890.503     -9792.8724      3.2545317     -54037.134    
    375600   2917.4352      13457.692     -3426.653      -27051.714      3.1830481     -54060.769    
    375700   3295.0099      12741.241      5939.3298      14587.155      3.38119       -54312.833    
    375800   3136.5618      19169.125      40598.711      22547.961      3.4298704     -54213.724    
    375900   3017.0287     -22714.513      8033.5586     -2923.8289      3.3146705     -54118.895    
    376000   2880.1211      6405.2361      3642.3834     -22599.644      3.3222459     -53996.965    
    376100   2911.4239     -38270.129     -20859.634     -38548.867      3.2374576     -53994.61     
    376200   2897.0793     -5948.2869      25358.592     -24525.423      3.4041603     -53966.785    
    376300   3168.684      -15907.404      10734.809     -21067.016      3.3100221     -54071.658    
    376400   3059.8327     -8003.9142     -1707.6913     -2736.7528      3.2791051     -54000.578    
    376500   2964.0663     -13789.987      10440.32      -1449.0637      3.3229478     -53979.01     
    376600   2998.4553     -21203.85      -21974.468     -20132.939      3.3341357     -54066.08     
    376700   2890.9226      13824.75       1028.9204     -7580.06        3.4374712     -54120.057    
    376800   2852.7271     -12646.431      14565.539     -12199.624      3.4626703     -54190.307    
    376900   2613.1254     -31292.6       -4022.4937      28263.509      3.4596593     -54130.799    
    377000   2773.8862     -21398.651     -45803.034     -1755.9771      3.3560513     -54224.004    
    377100   2892.0387     -27755.3       -17190.259      45788.958      3.4842069     -54247.174    
    377200   3169.8646     -17506.427      5989.9544     -12965.975      3.4310869     -54336.982    
    377300   3156.9277      7535.8211     -38.863986      24468.531      3.5256255     -54294.321    
    377400   3064.0398      20621.074      23741.829     -5874.3854      3.4456307     -54221.97     
    377500   2901.6115     -7109.0924      23593.333      19774.662      3.436423      -54118.255    
    377600   3010.1523      7994.953       14758.334     -31797.26       3.3194788     -54173.942    
    377700   2905.152      -6844.1962      11671.263     -46387.681      3.314561      -54130.383    
    377800   2767.3891     -15210.579      16665.211     -16312.133      3.3942966     -54046.523    
    377900   3080.2104     -29569.483     -6037.1055     -27863.587      3.3675971     -54186.12     
    378000   3046.7068      18093.556      33736.585      36603.015      3.4697291     -54096.418    
    378100   3133.6849      2857.1916      22276.364      47073.154      3.4803199     -54038.483    
    378200   3257.7795      31749.297     -25592.211      7796.0902      3.4915513     -54002.904    
    378300   3121.4404      28148.028      9791.1335      105.19797      3.4631555     -53912.877    
    378400   3187.4998     -23979.424     -21405.946     -40527.575      3.4173276     -54045.558    
    378500   3077.15       -367.40284      14163.547      23967.346      3.5315215     -54129.885    
    378600   3156.8975      16213.02       13264.707      17913.207      3.4731695     -54270.044    
    378700   2887.2348      17424.12      -31834.348      26105.444      3.4670872     -54167.025    
    378800   2658.7771      2146.9873     -49120.73       3938.5957      3.3738855     -54055.208    
    378900   2729.2356     -58051.734     -34180.5       -42494.258      3.3261686     -54071.312    
    379000   3057.1073      4520.5622      6484.6022     -16935.07       3.3895651     -54215.506    
    379100   2987.7851      40696.881      38612.575      20238.377      3.3378257     -54132.175    
    379200   3220.6546      9047.479       33079.036      13104.652      3.3281676     -54203.514    
    379300   3089.1423     -9184.9843     -14967.785      19639.256      3.287028      -54053.608    
    379400   3020.7391      11625.788     -25991.473     -20502.065      3.2532306     -53931.972    
    379500   3127.4699     -4627.319      -36160.012     -40063.772      3.2657762     -53908.024    
    379600   3316.1371      1070.4441     -50358.119     -25697.847      3.3359477     -53948.411    
    379700   2961.5606     -61071.81      -44546.535     -16856.017      3.3126998     -53812.328    
    379800   2892.6479     -22755.536     -19389.331     -14865.043      3.3723405     -53908.998    
    379900   3083.3796     -5895.8155      23632.481      54658.1        3.41824       -54143.386    
    380000   2903.3967      9055.0357      8359.5644      19203.718      3.409441      -54124.092    
    380100   2913.5919      16560.313     -13072.874      16945.809      3.4861516     -54148.391    
    380200   3025.9454      5556.7787      5978.5766     -3719.3712      3.4525894     -54200.826    
    380300   2881.2136      14427.867      9280.2741      3249.0829      3.4018875     -54132.189    
    380400   2827.6422      3179.0457     -28424.982     -24796.44       3.3649791     -54121.112    
    380500   3031.4653      19502.288     -16827.381     -12273.931      3.4190016     -54246.194    
    380600   2960.5799      5063.8696     -9434.6305      27408.541      3.4638049     -54239.273    
    380700   3033.8397      18378.41      -58156.405     -32083.306      3.4269138     -54371.103    
    380800   2907.7368      18469.952     -33672.084      10115.131      3.6219827     -54406.562    
    380900   2857.3046      7311.2708     -9726.1856     -10177.109      3.500308      -54454.432    
    381000   2721.2685     -6364.3632      7042.4572      22585.978      3.472068      -54418.358    
    381100   2763.0334      16225.165     -19797.694     -7921.8096      3.5391189     -54420.889    
    381200   2872.4227     -340.30881      7405.9119     -16401.181      3.6082599     -54403.494    
    381300   2825.0017     -5103.7216     -681.77266     -8622.1151      3.4319144     -54245.984    
    381400   2873.0762     -23151.712      7484.6747     -25383.722      3.3528189     -54163.701    
    381500   2945.5972      37004.215      46724.712      16123.925      3.5274007     -54145.595    
    381600   3162.0342      18038.757      29451.056      42202.787      3.5358951     -54247.47     
    381700   2849.4273      54332.71       41620.269      33121.304      3.5618392     -54069.831    
    381800   2938.9062      52493.371      34451.87       4319.6259      3.5472523     -54105.4      
    381900   3336.7389      1190.5678      26030.728      37990.616      3.5918007     -54336.848    
    382000   3065.8502     -671.00904      14492.321     -14881.138      3.5072898     -54252.272    
    382100   2989.2154      44091.074      11770.417     -4832.1125      3.5366234     -54305.555    
    382200   2820.1142      37245.568      13218.446      47883.288      3.6367676     -54328.137    
    382300   2807.7572      8782.239      -732.99294      27424.225      3.5684418     -54378.469    
    382400   2975.8431      8103.4394      3785.1995     -38137.497      3.5312473     -54490.805    
    382500   2871.4962     -1031.7545     -18646.893      16257.48       3.5765568     -54430.458    
    382600   2891.263      -9218.6439     -1416.044       53244.099      3.5812186     -54389.874    
    382700   3368.4845      37951.684      42824.536      28236.953      3.683804      -54473.475    
    382800   3329.1527      43063.478      23665.439      7534.2609      3.498882      -54316.81     
    382900   3269.926       34978.475      40737.264      39473.64       3.6083218     -54287.022    
    383000   2917.783       8857.2739      51068.947      2614.9626      3.5419314     -54140.796    
    383100   3098.4206      3458.1663      30052.954      33796.322      3.5769436     -54308.298    
    383200   3167.2062      18542.217     -22837.226      5975.4867      3.6223942     -54415.154    
    383300   2900.2879      7375.5914      18714.497     -12040.938      3.5348016     -54357.89     
    383400   2976.3523     -9850.2755     -2412.5492      37359.09       3.6142637     -54445.75     
    383500   2699.3028      12430.613     -338.49163      39673.2        3.6458602     -54318.385    
    383600   2772.6474     -32015.857      7579.2523      10667.23       3.5618475     -54356.359    
    383700   2921.3087     -27232.416      28656.258     -13670.829      3.5970779     -54362.204    
    383800   2834.9682      13881.211      17424.319      8315.4347      3.6512173     -54097.672    
    383900   3327.7564     -1709.6687      22780.652     -1269.7368      3.5693943     -54284.789    
    384000   3125.1499     -8930.4445      41595.164      14567.189      3.608088      -54172.098    
    384100   3145.3793     -7778.803       6546.3625      8286.8722      3.5288221     -54217.64     
    384200   2990.8484      38816.029      33814.737      23854.973      3.5431077     -54181.007    
    384300   2650.6503      41646.385      27963.264      14008.561      3.5320751     -54042.132    
    384400   3022.7289      33228.709     -12279.451      51385.691      3.5371852     -54297.935    
    384500   2774.8165     -33623.395      11943.651      32193.563      3.4490282     -54203.364    
    384600   2879.3181     -24432.315     -6154.6708      20148.035      3.493023      -54255.964    
    384700   3067.3548     -7322.1453      498.67348      22896.933      3.4615019     -54298.374    
    384800   3067.2913      13588.105     -3807.3041      4638.4943      3.4117222     -54198.787    
    384900   3232.2236      27490.951     -6789.3878     -15995.253      3.3952382     -54204.773    
    385000   3094.1888      54516.811      8246.2703      4788.1601      3.4754925     -54086.191    
    385100   3223.2683      13972.37       28472.968     -31355.865      3.4600204     -54166.622    
    385200   3116.7164     -1045.1287      9945.1439     -39949.474      3.3721287     -54231.135    
    385300   3050.1098     -3378.6908     -20754.128      16569.423      3.5366716     -54357.663    
    385400   3043.9292     -22747.205     -5098.9916      855.03824      3.4933533     -54437.613    
    385500   2582.7634     -4950.1224     -585.64851     -8655.7584      3.4658809     -54194.97     
    385600   2859.6157     -19190.074     -42887.017      1632.0386      3.4775936     -54338.382    
    385700   2760.6662     -31915.063     -14559.824     -154.42568      3.4342985     -54231.034    
    385800   2961.5117     -18058.17      -1053.7006     -349.90724      3.3651105     -54255.058    
    385900   3162.6673     -14407.594     -22264.686      3951.6069      3.3654099     -54286.302    
    386000   3060.411       51479.998     -5347.1976      20480.078      3.50425       -54161.94     
    386100   3302.5097      6702.4834      30690.408      19223.707      3.5483771     -54253.971    
    386200   3028.9369     -3229.8487      32033.024     -627.70214      3.5416489     -54112.65     
    386300   3064.8136     -3813.5518      65066.701      14095.373      3.5749827     -54144.374    
    386400   3227.1067     -1805.869      -22212.92       15591.648      3.4556844     -54266.14     
    386500   3063.5392     -9538.7422     -28106.528      839.44336      3.409856      -54217.608    
    386600   3045.3106      4139.1657      15756.482     -7171.269       3.4199474     -54235.256    
    386700   2805.4648      16286.391      11843.782     -4751.1539      3.3120509     -54104.557    
    386800   3144.7855     -14421.275      2503.4943      19666.513      3.3626354     -54272.691    
    386900   2898.3829     -11554.567     -38213.474      9459.3672      3.3692401     -54105.434    
    387000   3051.1254     -18735.871     -31312.571     -16226.778      3.3314978     -54119.844    
    387100   3084.2564     -12892.936     -159.28768      5106.2751      3.3148294     -54020.667    
    387200   2977.6079     -11746.896     -10332.741      14602.647      3.2627512     -53844.06     
    387300   3108.281      -20949.196      26088.559     -15976.028      3.2614055     -53867.515    
    387400   3205.5665     -1564.7061     -13980.305     -17832.849      3.1873018     -53924.586    
    387500   2983.6203     -5995.618      -11720.695     -37325.709      3.2016163     -53877.687    
    387600   2858.8166     -28716.491      318.62975      4224.801       3.2955089     -53897.644    
    387700   2736.8739     -28601.447      2052.3417     -28585.53       3.2341889     -53901.115    
    387800   2847.5324     -38603.856     -25470.434     -13032.489      3.2536209     -54011.712    
    387900   3165.6042     -12269.004      14311.481      2149.4653      3.3836299     -54247.113    
    388000   2975.1595     -7932.6873      2355.7292      21890.118      3.3361374     -54246.954    
    388100   2643.2731     -8449.0217      298.26109      7678.7895      3.3407345     -54199.744    
    388200   2692.3415      27803.981     -3439.9195      4402.6239      3.4777489     -54360.724    
    388300   2805.6942      4782.7409     -9453.6163     -2547.9005      3.4860558     -54462.779    
    388400   3000.2922      44351.901     -4891.6662      39951.828      3.6530011     -54558.273    
    388500   2996.2212     -3922.0692     -29494.64      -5511.0527      3.5089019     -54525.38     
    388600   2791.0589      30221.082      2957.8856     -16026.329      3.6303034     -54386.489    
    388700   2784.1449      165.92665     -2179.3874      23791.076      3.6122672     -54344.548    
    388800   3044.8401      10276.378     -25067.878     -8854.9243      3.5036886     -54425.169    
    388900   2884.4004      9422.5113      58005.934      19948.154      3.4780179     -54251.08     
    389000   3243.7776      11413.333      33897.401      16057.734      3.5241271     -54349.468    
    389100   3148.5509     -12545.837      6951.7788     -875.97297      3.5131922     -54264.84     
    389200   2567.0059     -20994.413     -8124.647       11675.429      3.4158482     -53899.839    
    389300   3062.385       8521.4211      13436.731     -22328.5        3.4671641     -54128.199    
    389400   3031.0132      17142.078     -3054.7943     -12872.763      3.5353184     -54079.122    
    389500   3342.032      -13533.049     -28819.881      6971.2046      3.5757609     -54265.74     
    389600   3189.0067      1066.5983      11327.222     -37909.988      3.5544071     -54229.932    
    389700   2857.2476     -30191.316     -4118.8849     -7093.7017      3.4516572     -54091.623    
    389800   2821.4637      5408.1083     -6805.296      -9043.0383      3.4017624     -54122.68     
    389900   3214.942      -28753.483     -49851.38      -44013.78       3.3767156     -54345.963    
    390000   2982.1207     -28697.375     -17732.354     -19457.008      3.3996021     -54245.969    
    390100   2960.83       -8765.5126     -7902.4649     -20216.645      3.3810184     -54238.155    
    390200   3076.8928      13775.479      25429.893     -2045.0366      3.4750494     -54270.704    
    390300   2942.6219      23697.561      27870.226     -566.46811      3.4634668     -54079.829    
    390400   3498.9681      13258.014      58581.611      37523.636      3.5644743     -54198.173    
    390500   3429.5062     -3767.7772      5420.963       17358.384      3.4209645     -54102.117    
    390600   2945.8662     -9294.8746      9604.037      -35510.248      3.364941      -53872.419    
    390700   3402.8579     -13399.188     -9417.9948     -14781.988      3.4449782     -54208.818    
    390800   3176.8151     -9991.3644      16474.334     -30176.143      3.3909503     -54222.471    
    390900   2845.2579      767.20116     -23454.449     -36810.093      3.3826041     -54125.466    
    391000   2965.2042     -29598.564     -3051.7705     -28590.43       3.4713233     -54226.648    
    391100   2932.7485      19089.955     -43523.315      5770.6771      3.4777196     -54241.649    
    391200   2710.0797      12678.646     -9595.8069      3691.9355      3.3745865     -54122.693    
    391300   2956.6913      17339.957      13343.455     -22480.22       3.3514524     -54214.6      
    391400   2726.5751      10450.727     -17888.683      17388.905      3.3358999     -53988.177    
    391500   3138.3436     -168.37915      27233.29       23970.258      3.4428235     -54090.969    
    391600   2956.6211      7279.6152     -20934.016      13879.117      3.3324102     -53935.837    
    391700   3267.8662      16142.322     -37600.342      6596.9954      3.3592444     -54122.447    
    391800   3177.6597      3485.9352     -5083.4932     -16457.874      3.4585472     -54132.783    
    391900   2987.183       48273.864      20905.577     -10209.684      3.4483364     -54085.415    
    392000   3059.2164      5333.4108      15509.259      782.36176      3.4578236     -54184.672    
    392100   2986.0945     -19568.592      27474.574      2077.4581      3.4625217     -54195.443    
    392200   2993.5864     -44334.141     -18375.259     -32264.648      3.4136863     -54255.239    
    392300   3019.0619      11658.744      19474.201     -5278.9083      3.4433438     -54321.6      
    392400   2966.9351      16435.565      20452.442      9633.9773      3.5229637     -54311.45     
    392500   2757.6464      16207.212     -10785.45      -4771.5833      3.4193384     -54192.77     
    392600   2737.3931      13442.703     -14099.454     -9579.591       3.372596      -54154.996    
    392700   3088.9811     -2599.6336     -33512.885     -2917.1891      3.3840871     -54218.271    
    392800   3268.916       1166.7332     -1509.4248     -16967.664      3.4238997     -54134.36     
    392900   3296.1636     -16755.286      23142.295      3676.6947      3.4225765     -54079.968    
    393000   3404.0404      18624.456     -1300.9366     -5326.1104      3.3745325     -54175.028    
    393100   3134.6413      2347.2748     -27049.519     -21248.381      3.2955755     -54139.372    
    393200   3000.1292     -10825.738     -15935.704     -17509.739      3.3156117     -54169.985    
    393300   3102.9062     -5722.3969     -21512.922     -26624.11       3.4001271     -54280.992    
    393400   2746.2038     -586.26884      9770.5213     -15407.677      3.3643044     -54124.823    
    393500   2854.1357      14417.336     -18086.052     -12821.754      3.3285693     -54163.29     
    393600   2858.8385      3055.5217      1899.9302      15962.082      3.345514      -54129.14     
    393700   3183.6629     -9353.9277      3957.5035     -6918.9989      3.2933168     -54196        
    393800   3214.9544     -11321.471     -38714.426      8298.3629      3.3078324     -54097.829    
    393900   3163.9676     -445.49797     -41971.38      -22375.924      3.351576      -54042.421    
    394000   3189.6955     -33121.483     -48274.417     -15417.906      3.3202795     -54090.02     
    394100   3169.727       6522.0528     -19098.949     -21721.56       3.3885579     -54134.727    
    394200   2905.9171      11098.537     -19505.411      16350.461      3.2761754     -54021.657    
    394300   2823.8221      14672.256     -13819.566      10674.839      3.3195232     -53980.655    
    394400   3089.7659     -39526.544      3315.7647      19211.034      3.2817428     -54115.999    
    394500   3202.9422     -9250.4182     -9800.9154     -17645.164      3.3228927     -54182.403    
    394600   2948.71       -10626.701     -28933.444     -35948.104      3.3123475     -54124.68     
    394700   2647.4868     -5054.1635     -1914.1697     -17041.395      3.4584987     -54084.891    
    394800   2906.2528     -4796.406      -14456.381     -4579.5222      3.4894077     -54300.374    
    394900   2754.2038      21188.747      16899.669     -15045.162      3.497803      -54210.972    
    395000   2922.7684      25307.69      -1679.3307     -19595.305      3.3588033     -54255.947    
    395100   3040.6495     -16723.042     -12535.134      5853.0267      3.3549546     -54271.028    
    395200   2922.666       17013         -4613.1744     -30981.925      3.3372356     -54177.006    
    395300   3242.7522     -4007.4789     -21946.561     -12766.221      3.3450243     -54317.977    
    395400   2984.6631     -14667.29       12758.665      372.13909      3.3233916     -54150.573    
    395500   3260.485      -18191.148     -22250.118     -39937.351      3.2792269     -54265.486    
    395600   2819.4706      4378.1083      5842.7678      6866.8309      3.3384225     -53991.823    
    395700   3202.9777     -13135.11       22532.078      1770.9346      3.3989181     -54075.926    
    395800   2997.3507     -52854.406      52985.047     -27373.796      3.3677073     -53815.859    
    395900   3019.6937     -32482.484     -21666.311     -4510.1517      3.2510275     -53757.623    
    396000   3446.9267     -7450.2879     -17637.159     -31300.163      3.3014053     -54024.66     
    396100   3225.8072     -15598.951     -1296.208      -9434.7873      3.3217453     -54021.253    
    396200   2858.5332      5066.6021     -30679.234      7889.0164      3.3916118     -53947.88     
    396300   2971.9917     -16114.131      2887.5791      1531.2935      3.3793566     -54081.691    
    396400   2956.1509      2366.9085      17134.232     -23112.103      3.3596322     -54136.212    
    396500   2855.8065     -45838.445     -28026.562      1942.3707      3.3603689     -54129.761    
    396600   2997.9937     -30570.863     -1311.0344      16325.625      3.3459087     -54256.767    
    396700   2841.4225     -1891.8285     -21276.885     -2145.9007      3.3867299     -54218.777    
    396800   2949.5711     -3635.8007      123.17724      33687.742      3.526329      -54297.456    
    396900   2949.6123     -15190.106     -13670.21       14193.151      3.5135277     -54349.895    
    397000   2840.8677      21098.216      17041.817      11855.772      3.5563792     -54348.752    
    397100   2710.7247     -20028.396     -3426.2347      7582.8766      3.4183496     -54338.098    
    397200   2979.517       6896.4705      35838.412      8240.7187      3.5471865     -54511.292    
    397300   2778.4828     -5600.5817      12113.945      9397.3775      3.5253083     -54414.259    
    397400   2950.4079      11536.282      18444.726      149.11489      3.5389651     -54451.076    
    397500   3082.6647      1549.9434      44064.417     -9172.565       3.5660131     -54379.372    
    397600   2951.3977      12627.768     -7341.4209     -21089.498      3.3917787     -54202.904    
    397700   3058.4049      24940.714      56412.57       28634.273      3.559717      -54191.752    
    397800   3127.3428      4832.4037     -8609.9174     -5746.044       3.4131455     -54156.335    
    397900   3264.4233     -18486.148      19649.235      710.46546      3.5094838     -54217.9      
    398000   3069.7405     -22991.654     -3444.4502     -13680.181      3.4465212     -54141.868    
    398100   3091.6647     -16874.269     -18611.704     -36800.221      3.400264      -54200.086    
    398200   2885.9423      32958.64       11466.804     -422.5407       3.4583983     -54160.731    
    398300   3116.7314      35777.122      37288.701      17898.017      3.552153      -54378.521    
    398400   2677.7335     -21080.712      42800.301      24299.261      3.5365743     -54217.615    
    398500   2758.7709      2705.7405      883.17074      14810.288      3.5024642     -54286.125    
    398600   2910.0925     -20192.448     -43966.91      -6215.8334      3.3514978     -54363.154    
    398700   2859.4069      6671.2059     -3066.3016      37775.053      3.3777024     -54242.926    
    398800   2994.3079     -2580.8237      1381.8965      6236.9135      3.3346798     -54155.047    
    398900   2919.4493      2461.5677     -35767.193     -27407.268      3.3046419     -53999.637    
    399000   2988.7969     -52643.061     -13913.685      6405.9248      3.3063303     -53975.944    
    399100   3105.6406      694.16168      12055.672      26187.321      3.3511637     -54018.531    
    399200   3218.5544     -31906.387     -7977.4055      4431.3918      3.2712707     -54042.865    
    399300   3135.7168     -4181.1816     -18642.511     -11564.415      3.3653294     -54041.873    
    399400   3227.1489     -33034.115     -3764.4581     -15660.072      3.3135629     -54183.721    
    399500   2911.0923     -29507.435      28622.18       1602.2643      3.3273518     -54107.262    
    399600   3019.8528      16106.008      15250.48       25279.488      3.4317201     -54230.257    
    399700   2741.0478      14255.902     -13603.274     -13946.176      3.4065887     -54119.198    
    399800   2961.9053      7009.0969      9688.1787     -828.15953      3.3840413     -54224.829    
    399900   3052.0093      45506.865      40284.51       38499.529      3.5563359     -54225.389    
    400000   3317.1132     -1242.3623      26073.633      8749.2493      3.5578333     -54258.139    
Loop time of 450.99 on 1 procs for 400000 steps with 189 atoms

Performance: 38.316 ns/day, 0.626 hours/ns, 886.937 timesteps/s, 167.631 katom-step/s
99.9% CPU use with 1 MPI tasks x no OpenMP threads

MPI task timing breakdown:
Section |  min time  |  avg time  |  max time  |%varavg| %total
---------------------------------------------------------------
Pair    | 328.22     | 328.22     | 328.22     |   0.0 | 72.78
Kspace  | 66.518     | 66.518     | 66.518     |   0.0 | 14.75
Neigh   | 48.039     | 48.039     | 48.039     |   0.0 | 10.65
Comm    | 4.7598     | 4.7598     | 4.7598     |   0.0 |  1.06
Output  | 0.072182   | 0.072182   | 0.072182   |   0.0 |  0.02
Modify  | 2.6934     | 2.6934     | 2.6934     |   0.0 |  0.60
Other   |            | 0.6875     |            |       |  0.15

Nlocal:            189 ave         189 max         189 min
Histogram: 1 0 0 0 0 0 0 0 0 0
Nghost:           2929 ave        2929 max        2929 min
Histogram: 1 0 0 0 0 0 0 0 0 0
Neighs:          34734 ave       34734 max       34734 min
Histogram: 1 0 0 0 0 0 0 0 0 0

Total # of neighbors = 34734
Ave neighs/atom = 183.77778
Neighbor list builds = 60230
Dangerous builds = 0

#      minimize          1.0e-6 1.0e-3 1000 1000000

write_data        ${runString}.data nocoeff
write_data        hot_npt.data nocoeff
System init for write_data ...
Ewald initialization ...
  using 12-bit tables for long-range coulomb
  G vector (1/distance) = 0.28935212
  estimated absolute RMS force accuracy = 0.033353158
  estimated relative force accuracy = 0.00010044204
  KSpace vectors: actual max1d max3d = 128 4 364
                  kxmax kymax kzmax  = 4 4 4
Generated 0 of 1 mixed pair_coeff terms from geometric mixing rule
Total wall time: 0:07:30
