LAMMPS (22 Jul 2025 - Update 2)
# TIO2 MELT QUENCH

variable runString string hot_nvt

units             real
dimension         3
atom_style        charge

boundary p p p
read_data         start.data
Reading data file ...
  orthogonal box = (0 0 0) to (16 16 16)
  1 by 1 by 1 MPI processor grid
  reading atoms ...
  189 atoms
  read_data CPU = 0.001 seconds

pair_style buck/coul/long 10.0
pair_coeff 2 2 717654 0.154 120.997
pair_coeff 1 2 391053 0.194 290.392
pair_coeff 1 1 271719 0.234 696.941

kspace_style      ewald 1.0e-4

#fix               F1 all nve
#fix               F2 all npt temp 3000.0 3000.0 $(100*dt) iso 0 0 #(100*dt)
fix               F3 all nvt temp 3000.0 3000.0 $(100*dt)
fix               F3 all nvt temp 3000.0 3000.0 100
#fix               F4 all temp/rescale 1 10.0 10.0 5.0 1.0

#velocity          all create 800.0 97475745 dist gaussian

group Ti type 2
63 atoms in group Ti
group O type 1
126 atoms in group O

#compute TiMSD Ti msd com yes average no
#compute OMSD O msd com yes average no
#fix 1 Ti ave/time 1 1 200 c_TiMSD[*] file ${runString}.msdTi mode vector
#fix 2 O ave/time 1 1 200 c_OMSD[*] file ${runString}.msdO mode vector


neighbor          0.3 bin
neigh_modify      delay 0 every 1 check yes

thermo            100
thermo_style custom step temp pxx pyy pzz density pe

dump D1 all custom 10000 ${runString}.dump id type x y z ix iy iz
dump D1 all custom 10000 hot_nvt.dump id type x y z ix iy iz


timestep          0.5
run               200000
Ewald initialization ...
  using 12-bit tables for long-range coulomb
  G vector (1/distance) = 0.28450507
  estimated absolute RMS force accuracy = 0.033213181
  estimated relative force accuracy = 0.00010002051
  KSpace vectors: actual max1d max3d = 257 5 665
                  kxmax kymax kzmax  = 5 5 5
Generated 0 of 1 mixed pair_coeff terms from geometric mixing rule
Neighbor list info ...
  update: every = 1 steps, delay = 0 steps, check = yes
  max neighbors/atom: 2000, page size: 100000
  master list distance cutoff = 10.3
  ghost atom cutoff = 10.3
  binsize = 5.15, bins = 4 4 4
  1 neighbor lists, perpetual/occasional/extra = 1 0 0
  (1) pair buck/coul/long, perpetual
      attributes: half, newton on
      pair build: half/bin/atomonly/newton
      stencil: half/bin/3d
      bin: standard
Per MPI rank memory allocation (min/avg/max) = 12 | 12 | 12 Mbytes
   Step          Temp           Pxx            Pyy            Pzz          Density         PotEng    
         0   0             -19421.676      9607.6365      19458.937      2.0397933     -18220.221    
       100   25685.736      239084.33      142501.06      201591.08      2.0397933     -43360.806    
       200   12792.657      47290.452      35608.673      58097.568      2.0397933     -45208.923    
       300   9192.1064      10797.821     -14216.241     -8552.7074      2.0397933     -47951.958    
       400   6496.1395     -17105.553     -27733.85      -15998.432      2.0397933     -49277.052    
       500   5307.5741     -24405.339     -27858.483     -33983.96       2.0397933     -50414.074    
       600   4705.1247     -31336.523     -15952.279     -39321.315      2.0397933     -51415.77     
       700   3787.1922     -25006.72      -35592.6       -37919.681      2.0397933     -51907.829    
       800   3415.408      -23507.429     -37599.288     -36509.517      2.0397933     -52396.327    
       900   3254.8542     -19484.078     -47158.024     -29930.041      2.0397933     -52836.778    
      1000   2757.3935     -37823.594     -34201.567     -40723.21       2.0397933     -52970.429    
      1100   2751.5139     -27725.442     -39918.119     -31012.991      2.0397933     -53221.812    
      1200   2589.256      -47914.332     -35866.05      -48070.572      2.0397933     -53287.736    
      1300   2795.547      -34843.904     -31927.452     -34270.506      2.0397933     -53462.732    
      1400   2736.2325     -14536.768     -33914.721     -22259.871      2.0397933     -53418.064    
      1500   2608.528      -31298.907     -33083.035     -28700.022      2.0397933     -53259.499    
      1600   2851.2902     -5739.1212     -10089.493     -12025.055      2.0397933     -53241.427    
      1700   3164.1687     -12864.795     -21636.75      -41775.856      2.0397933     -53245.784    
      1800   3066.4894     -18061.03      -14968.743     -20512.133      2.0397933     -53041.606    
      1900   3215.8255     -22643.163     -24212.952     -25503.047      2.0397933     -53020.084    
      2000   3427.0717     -6844.5531     -25729.834     -24049.923      2.0397933     -53131.911    
      2100   3238.2467     -30090.236     -28782.694     -40210.007      2.0397933     -53102.302    
      2200   3041.2592     -1276.5523     -28593.657     -43031.196      2.0397933     -53103.437    
      2300   2866.7714     -21591.018     -19540.455     -40503.597      2.0397933     -53139.114    
      2400   2853.3323      1359.7281     -41365.015     -39117.054      2.0397933     -53237.496    
      2500   3039.9755     -28241.63      -21062.324     -17373.409      2.0397933     -53410.209    
      2600   2915.6547     -14765.73      -4300.459      -15506.674      2.0397933     -53373.721    
      2700   2857.4704     -23759.44      -41362.004     -35392.411      2.0397933     -53335.725    
      2800   3117.1632     -24185.014     -33145.98      -27893.185      2.0397933     -53442.434    
      2900   2955.7008     -31769.448     -3106.2666     -16270.669      2.0397933     -53306.794    
      3000   3206.9976     -22450.283     -22426.668     -26617.205      2.0397933     -53375.4      
      3100   3071.4945     -16689.553     -30325.793     -13907.48       2.0397933     -53219.637    
      3200   2950.8237     -5219.2658     -33936.673     -25170.133      2.0397933     -53080.706    
      3300   3192.02       -11492.083     -20466.809     -18287.027      2.0397933     -53155.197    
      3400   3055.5038     -4504.5993     -25069.461     -24415.453      2.0397933     -53055.634    
      3500   3024.6407     -13482.361     -17781.136     -14619.591      2.0397933     -53055.567    
      3600   2829.926      -4549.4455     -22233.352     -23910.888      2.0397933     -52982.276    
      3700   2812.937      -13864.571     -4785.718      -17485.998      2.0397933     -52977.154    
      3800   2985.9606     -28634.685     -32645.327     -24928.661      2.0397933     -53066.658    
      3900   3052.5205     -12946.212     -16864.301     -19627.838      2.0397933     -53100.933    
      4000   2897.1359     -26102.888     -36335.087     -27089.061      2.0397933     -53017.694    
      4100   3170.229      -10872.258     -22179.874     -4379.2813      2.0397933     -53166.081    
      4200   3160.306      -34251.771     -26450.319     -33164.586      2.0397933     -53183.527    
      4300   3086.0511     -13018.485     -23566.184     -390.34759      2.0397933     -53176.908    
      4400   2966.8646     -29565.624     -35415.599     -26170.374      2.0397933     -53186.217    
      4500   2860.9338     -19904.515     -17308.285     -22323.541      2.0397933     -53228.76     
      4600   2983.9408     -15072.969     -27058.24      -16862.315      2.0397933     -53387.623    
      4700   2708.0434     -25081.846     -18399.036     -7735.1767      2.0397933     -53294.065    
      4800   2689.3725     -24390.963     -30400.074     -49245.665      2.0397933     -53291.995    
      4900   2801.2309     -1003.5655     -13374.176     -27336.559      2.0397933     -53293.394    
      5000   3038.9095     -16812.609     -2416.3667     -6056.5683      2.0397933     -53314.301    
      5100   3228.3571     -30230.604     -11443.497     -18928.851      2.0397933     -53291.438    
      5200   2943.3948     -7796.9778     -26780.383     -16665.559      2.0397933     -53030.732    
      5300   3252.3601     -295.17396     -24409.806     -14226.991      2.0397933     -53144.062    
      5400   3202.1574     -34851.82      -46370.759     -30253.968      2.0397933     -53133.341    
      5500   3018.3531     -26786.134     -34266.319     -12339.079      2.0397933     -53105.181    
      5600   3063.2536     -24908.723     -35920.342     -28581.386      2.0397933     -53208.008    
      5700   2979.0357     -4198.1707     -26692.814     -15085.436      2.0397933     -53225.815    
      5800   2891.8852     -15972.945     -22398.597     -9407.5419      2.0397933     -53220.332    
      5900   2660.6219     -22738.901     -17225.723     -29566.049      2.0397933     -53099.426    
      6000   2998.8176     -6309.8297     -10552.877     -16758.289      2.0397933     -53235.526    
      6100   3288.4157     -10848.047     -19955.696     -28982.788      2.0397933     -53325.972    
      6200   3173.6571     -32401.118     -33075.037     -5618.2457      2.0397933     -53229.691    
      6300   3087.8065     -8519.1846     -2754.9135     -27381.791      2.0397933     -53217.543    
      6400   2962.7872      14713.341      12559.446      414.62344      2.0397933     -53222.26     
      6500   3166.7891     -19559.991     -18304.078     -15323.581      2.0397933     -53425.609    
      6600   2943.08       -16744.162     -20929.859     -3376.2867      2.0397933     -53398.103    
      6700   2965.3401     -16150.137     -22415.289     -17029.898      2.0397933     -53476.567    
      6800   2800.7471     -5632.612      -10159.465     -1017.5318      2.0397933     -53406.124    
      6900   2925.3719     -15089.528     -7205.426      -5232.4862      2.0397933     -53455.418    
      7000   2797.5667     -9025.1467     -6049.8973     -17228.637      2.0397933     -53343.146    
      7100   2789.1948     -4339.9582      5400.934      -21208.621      2.0397933     -53276.695    
      7200   2930.6524     -25046.614     -23681.958     -32849.073      2.0397933     -53277.521    
      7300   2955.7281     -34297.949     -21827.49      -6085.7377      2.0397933     -53218.357    
      7400   3240.7465     -14176.558     -21674.949     -13602.322      2.0397933     -53330.236    
      7500   3249.4292     -26017.271     -6446.5813     -20761.105      2.0397933     -53328.489    
      7600   3050.3235     -26324.783     -25640.605     -23595.79       2.0397933     -53234.328    
      7700   3172.133      -17998.781     -32667.768     -24104.259      2.0397933     -53347.043    
      7800   3012.8007     -14912.703     -13763.132     -15440.168      2.0397933     -53313.527    
      7900   3037.7692     -21431.911     -19642.381     -15623.775      2.0397933     -53419.377    
      8000   2657.3861     -18455.286     -16000.536     -33224.827      2.0397933     -53292.716    
      8100   3053.8237     -2601.2536     -11917.105     -27021.056      2.0397933     -53547.392    
      8200   2967.9562     -14987.013     -18321.52      -14157.226      2.0397933     -53504.635    
      8300   2780.4243     -17413.654     -8554.4591     -17370.31       2.0397933     -53378.121    
      8400   2788.788      -12911.448     -18894.905     -4178.6663      2.0397933     -53333.089    
      8500   2869.9167     -14953.229     -10664.006     -21771.752      2.0397933     -53298.892    
      8600   3274.1025     -6569.3277      8849.8688     -2033.002       2.0397933     -53406.906    
      8700   3100.4656     -19426.823     -15109.061     -9.5420455      2.0397933     -53206.979    
      8800   3358.2065     -6848.7554     -21123.19       1552.8933      2.0397933     -53277.452    
      8900   3288.0605     -10053.366     -10355.048     -2400.164       2.0397933     -53242.013    
      9000   2940.5345     -17365.764      4465.3561      4621.5583      2.0397933     -53150.606    
      9100   3118.6499     -930.7672      -9343.4712     -12593.684      2.0397933     -53373.64     
      9200   2826.5906     -11630.364     -25298.023     -16923.228      2.0397933     -53317.817    
      9300   2797.5273     -25981.649     -28550.834     -20198.554      2.0397933     -53352.072    
      9400   3006.7651     -429.3743       4121.4017     -12752.348      2.0397933     -53451.199    
      9500   2873.6729     -29481.19      -21715.912     -14175.768      2.0397933     -53326.006    
      9600   2840.7509     -35913.255     -21054.414     -18393.697      2.0397933     -53225.559    
      9700   3099.4828     -11487.024     -14444.593     -2152.536       2.0397933     -53288.224    
      9800   3141.1511     -26366.382     -11643.93      -25400.319      2.0397933     -53284.075    
      9900   3003.7664     -2266.9551     -28683.707      9339.8619      2.0397933     -53231.274    
     10000   3222.6112     -15972.252     -18224.04      -16389.514      2.0397933     -53419.771    
     10100   3132.311      -11755.184     -12556.706     -2465.2162      2.0397933     -53453.013    
     10200   2878.0769     -19870.696     -14523.367     -13596.179      2.0397933     -53391.487    
     10300   2885.796      -3236.1064     -4438.5193     -8800.3914      2.0397933     -53443.239    
     10400   2954.3705     -17142.295     -4819.3984     -19119.535      2.0397933     -53475.562    
     10500   3234.7237     -6914.9642     -5454.319      -30585.354      2.0397933     -53591.475    
     10600   2788.3868     -27079.338     -17147.243     -26072.113      2.0397933     -53307.74     
     10700   3040.5048      713.92523     -40168.827     -6183.8243      2.0397933     -53401.066    
     10800   3178.061       1825.2757     -17802.835     -14046.269      2.0397933     -53448.46     
     10900   3026.0685     -7360.2955     -9220.3329     -26013.334      2.0397933     -53363.231    
     11000   2986.0594      2747.234      -8283.6766      15180.988      2.0397933     -53356.173    
     11100   2898.6111     -3308.9791     -9127.8018     -36952.733      2.0397933     -53347.164    
     11200   2973.0023     -11201.064     -14308.009     -17125.602      2.0397933     -53434.416    
     11300   2935.0293     -5544.8761     -11243.405     -13079.746      2.0397933     -53440.226    
     11400   2962.0132     -4458.5139     -19009.153     -16435.639      2.0397933     -53457.288    
     11500   2758.2223     -16999.526     -38032.552     -10121.585      2.0397933     -53314.466    
     11600   2883.5601     -3363.4717     -18207.047     -1263.4793      2.0397933     -53328.487    
     11700   3089.6455     -28548.863     -18240.846     -19251.359      2.0397933     -53390.082    
     11800   3237.9956     -20540.844     -47082.148     -19716.879      2.0397933     -53428.971    
     11900   2963.7623     -202.93906     -8321.7129     -19117.784      2.0397933     -53273.214    
     12000   3211.81       -18765.728     -14508.267     -11635.847      2.0397933     -53427.171    
     12100   2865.7426     -15244.07      -17075.521     -33481.097      2.0397933     -53255.094    
     12200   2917.9102     -20290.786      3832.9383     -8125.8683      2.0397933     -53285.092    
     12300   2952.3412     -31470.615     -44167.117     -42121.469      2.0397933     -53292.837    
     12400   2832.6117     -14047.967      2465.3575     -17235.006      2.0397933     -53206.032    
     12500   3139.1666     -16433.067     -825.26502     -6440.9249      2.0397933     -53347.211    
     12600   2877.7677     -8080.1417     -26074.635     -6703.7221      2.0397933     -53191.1      
     12700   3138.5726     -1260.4852     -10333.494      251.22813      2.0397933     -53316.171    
     12800   3257.5038      3245.6317     -8567.4056     -21791.073      2.0397933     -53368.605    
     12900   2774.2089     -10523.139     -7316.011      -23619.136      2.0397933     -53126.673    
     13000   2988.9783      3971.8098     -12799.44      -10204.295      2.0397933     -53252.397    
     13100   2824.2616     -27074.912     -10056.927     -26879.407      2.0397933     -53137.088    
     13200   3118.5349     -23353.934     -12430.918     -30607.35       2.0397933     -53231.705    
     13300   3343.1045     -7255.5798     -20889.871     -15359.69       2.0397933     -53293.989    
     13400   3392.3544     -26485.118     -30013.658     -20630.952      2.0397933     -53300.983    
     13500   3553.738      -5610.565      -3752.971      -29038.957      2.0397933     -53432.573    
     13600   3286.7485      13241.384     -2520.3067     -6766.5427      2.0397933     -53388.051    
     13700   2950.7072     -14656.856     -25779.127     -30279.39       2.0397933     -53323.359    
     13800   2932.2288     -1134.1293     -5526.1588      1156.407       2.0397933     -53407.361    
     13900   2805.6485     -17434.798     -7310.5139     -13211.41       2.0397933     -53398.292    
     14000   2775.9111     -5857.0274     -14581.767     -25565.761      2.0397933     -53386.239    
     14100   2839.7062     -1261.9895     -9471.7981      3708.7912      2.0397933     -53370.689    
     14200   2785.579      -15920.816     -8897.8457     -38216.36       2.0397933     -53248.808    
     14300   3015.293      -39109.956     -13634.873     -34533.417      2.0397933     -53248.433    
     14400   3060.4178     -14952.381     -21148.65       1186.4128      2.0397933     -53149.373    
     14500   3163.8118     -24745.324     -24848.26      -3307.4945      2.0397933     -53115.476    
     14600   3249.5317     -10738.613     -6096.7327     -19973.777      2.0397933     -53147.403    
     14700   2927.7856     -14115.387     -16071.255     -21151.838      2.0397933     -53006.227    
     14800   3136.3292     -22515.482     -19415.778     -20207.724      2.0397933     -53178.896    
     14900   3172.4954     -15594.135     -27934.727     -18559.409      2.0397933     -53299.558    
     15000   2998.2838     -16441.327      1749.7955     -14513.68       2.0397933     -53319.452    
     15100   2983.256      -22263.357     -1529.7486     -86.123326      2.0397933     -53427.995    
     15200   2878.1537     -19045.788     -15807.11      -21526.293      2.0397933     -53476.372    
     15300   2709.7068     -25196.625     -10470.414     -5192.104       2.0397933     -53454.154    
     15400   2761.989      -24586.084     -36020.647     -11370.655      2.0397933     -53501.282    
     15500   3005.3291     -31942.937     -2229.4174      3544.5651      2.0397933     -53595.637    
     15600   2987.7503     -11357.897      2391.7301     -29768.683      2.0397933     -53502.287    
     15700   2940.3174     -21228.068     -2858.0621     -9299.9241      2.0397933     -53356.711    
     15800   3142.5082     -1613.407      -6219.156      -17074.788      2.0397933     -53350.478    
     15900   3077.0627     -35589.494     -16352.879     -23004.113      2.0397933     -53243.038    
     16000   2994.22       -53590.124      1349.6597     -18019.451      2.0397933     -53157.457    
     16100   2969.6769     -25251.776     -11690.644     -6219.4136      2.0397933     -53137.621    
     16200   3029.1061     -17120.048     -20487.969     -39671.207      2.0397933     -53160.922    
     16300   3329.905      -9659.5319     -3576.7376     -24772.369      2.0397933     -53327.594    
     16400   2899.9125     -17058.542     -11700.951     -16636.287      2.0397933     -53125.965    
     16500   3109.0592     -31710.649     -16009.779     -8797.8765      2.0397933     -53272.246    
     16600   3261.472      -8687.618      -9999.5035     -31088.221      2.0397933     -53428.534    
     16700   3157.8854     -33357.738      3400.3519     -19971.972      2.0397933     -53493.6      
     16800   2645.3052     -34782.317     -32376.868     -27343.128      2.0397933     -53335.353    
     16900   2776.3466     -23175.72      -44438.953     -20539.504      2.0397933     -53472.672    
     17000   2824.545      -24987.77      -23096.774     -12165.973      2.0397933     -53497.415    
     17100   2843.5644     -14062.472     -16142.654     -18498.517      2.0397933     -53444.665    
     17200   2895.9531     -17058.429     -41167.793     -20429.142      2.0397933     -53385.325    
     17300   3121.5586     -23478.766     -9251.3566     -12452.845      2.0397933     -53402.883    
     17400   2999.0168     -4445.8869     -35607.452     -20129.095      2.0397933     -53243.859    
     17500   3129.0379     -6318.0059     -14436.104     -10334.498      2.0397933     -53253.191    
     17600   3010.5324     -8390.6731     -17527.107     -29804.129      2.0397933     -53152.373    
     17700   3230.8866     -16266.356     -29548.003     -840.61768      2.0397933     -53278.167    
     17800   3322.2397     -24392.948     -14907.61      -21150.213      2.0397933     -53418.65     
     17900   2812.2285     -6601.4986     -18242.022     -25658.917      2.0397933     -53254.209    
     18000   3045.9412     -18137.838     -11231.789     -473.32716      2.0397933     -53445.877    
     18100   3066.1222     -13194.055     -16193.337     -10250.539      2.0397933     -53538.61     
     18200   3027.1141     -23645.592     -20536.314     -29877.875      2.0397933     -53621.087    
     18300   2891.4563     -16452.871      2363.9528     -9041.5894      2.0397933     -53622.565    
     18400   2652.8715     -13598.7       -14330.818     -12920.986      2.0397933     -53522.521    
     18500   2596.4463     -17653.527     -2538.7242     -13328.882      2.0397933     -53445.354    
     18600   3023.4929      4448.1497     -18913.556     -20424.219      2.0397933     -53571.09     
     18700   2799.9258     -4732.9014     -4170.1115     -10389.528      2.0397933     -53360.72     
     18800   2921.821       498.66877     -766.75443     -7368.9208      2.0397933     -53385.378    
     18900   2930.1351      3256.2713      12582.205     -28844.96       2.0397933     -53360.876    
     19000   2761.6361     -25203.661     -2661.4958     -21284.939      2.0397933     -53226.233    
     19100   2894.8645      16036.617      10615.298      1546.92        2.0397933     -53247.271    
     19200   3006.7079     -14508.051     -4425.2918     -37047.286      2.0397933     -53297.373    
     19300   3265.2242     -23456.578     -17105.667     -16347.357      2.0397933     -53487.961    
     19400   2988.4875     -4193.6734     -13816.348     -382.91029      2.0397933     -53473.436    
     19500   2904.9553     -14384.34      -19182.352     -17786.422      2.0397933     -53560.771    
     19600   2869.3472     -6841.3063     -3083.1297     -24428.089      2.0397933     -53597.085    
     19700   2986.4737      12365.668     -4721.4267     -5325.5716      2.0397933     -53672.961    
     19800   2893.7601      19549.089     -14389.818     -8300.1452      2.0397933     -53622.597    
     19900   2811.1988     -11306.032      5779.312       4253.2754      2.0397933     -53552.29     
     20000   2960.5975     -1090.5974      18601.356     -4806.6148      2.0397933     -53593.991    
     20100   3000.2006     -20539.701     -2752.511      -13325.752      2.0397933     -53534.921    
     20200   3157.19       -10040.614     -12258.237     -14394.046      2.0397933     -53481.514    
     20300   3262.3431     -9091.1635     -19638.903     -17537.135      2.0397933     -53438.218    
     20400   3356.0733      3019.0997     -21847.678     -20690.439      2.0397933     -53473.882    
     20500   2922.5997     -18020.495     -9383.2252     -8371.0809      2.0397933     -53263.997    
     20600   3137.9572     -11738.827     -2294.9711      9820.7911      2.0397933     -53424.452    
     20700   3091.5268     -279.63555     -12881.95       8053.9071      2.0397933     -53471.552    
     20800   3021.3317     -9898.4161      5471.8796     -17045.678      2.0397933     -53491.969    
     20900   3146.8156     -16171.436     -23509.256     -14231.364      2.0397933     -53600.13     
     21000   2804.1961     -21605.105     -6968.3962     -22130.397      2.0397933     -53453.058    
     21100   2962.1178     -13064.845     -27817.779     -10001.726      2.0397933     -53550.021    
     21200   2757.5467     -15959.404      8087.0041     -24218.399      2.0397933     -53417.745    
     21300   2827.3871     -26542.562     -13965.415     -20470.375      2.0397933     -53366.782    
     21400   3282.1434     -20777.646     -7282.5641     -2978.0236      2.0397933     -53414.045    
     21500   3230.6712      14735.37      -3548.8278      2420.4219      2.0397933     -53309.077    
     21600   3309.06       -15276.687     -44583.336     -14046.705      2.0397933     -53363.867    
     21700   2926.6226      4856.4955     -9341.7988     -20895.889      2.0397933     -53188.852    
     21800   3096.2306      8631.3884      3900.7498      2961.7467      2.0397933     -53343.397    
     21900   2929.0531      3899.2834     -14819.135     -24109.585      2.0397933     -53345.927    
     22000   3154.132      -15531.746     -38107.778     -21840.429      2.0397933     -53532.931    
     22100   3027.8466     -18364.784     -29782.485     -29089.539      2.0397933     -53503.682    
     22200   2686.2738     -27373.763     -46740.747     -31285.411      2.0397933     -53334.296    
     22300   2660.0831     -11210.662     -34407.538     -10682.688      2.0397933     -53265.495    
     22400   3027.2429      1066.0695     -37862.493     -11212.825      2.0397933     -53290.675    
     22500   3106.6081      2531.0998     -25043.261     -16782.121      2.0397933     -53222.343    
     22600   3052.7608     -12000.502     -23630.101     -17094.143      2.0397933     -53181.536    
     22700   2911.6864     -15540.033     -28677.559     -35077.943      2.0397933     -53124.911    
     22800   2971.8463     -15922.502     -37032.66      -35451.481      2.0397933     -53190.792    
     22900   3156.1265     -6190.5528     -28932.883     -2372.6864      2.0397933     -53352.618    
     23000   3036.0012     -20396.536     -12285.478     -28920.865      2.0397933     -53360.611    
     23100   2844.4028     -16977.859     -33563.986     -12713.042      2.0397933     -53327.183    
     23200   2703.5663     -23504.432     -22084.759     -19360.615      2.0397933     -53293.004    
     23300   3040.6827      2647.4703     -24707.815     -12480.868      2.0397933     -53477.219    
     23400   2948.1512     -1286.6147     -30820.89      -15383.675      2.0397933     -53404.363    
     23500   2805.6774     -11360.354     -9434.7123     -26211.742      2.0397933     -53247.413    
     23600   2955.4916      7921.9519     -16123.751     -12952.508      2.0397933     -53173.17     
     23700   3550.979       8192.1944      13144.424      105.81425      2.0397933     -53400.824    
     23800   3145.0077     -9747.7319      3115.5853     -5757.9084      2.0397933     -53187.262    
     23900   3215.7026     -12912.21      -16659.314     -15730.6        2.0397933     -53309.573    
     24000   3000.0989     -14826.32       3946.4406     -17346.831      2.0397933     -53310.948    
     24100   2776.6386     -37183.35      -28870.08      -31098.14       2.0397933     -53258.72     
     24200   3124.9557     -6574.6481      11697.813     -18480.445      2.0397933     -53471.095    
     24300   3112.8794     -19261.048     -11475.349     -5746.9674      2.0397933     -53480.723    
     24400   2933.1702     -14878.485     -16040.578     -5185.2935      2.0397933     -53404.469    
     24500   3100.3529      2758.3368      28197.214      3432.3222      2.0397933     -53523.091    
     24600   2893.3061     -28508.232     -36573.537     -36850.618      2.0397933     -53463.357    
     24700   2952.8121     -29958.88      -27162.577     -45346.089      2.0397933     -53573.16     
     24800   2613.4181     -25040.903     -14466.75      -13955.451      2.0397933     -53452.604    
     24900   2852.2937     -1475.449      -3476.7909     -18058.91       2.0397933     -53584.685    
     25000   2975.8221     -10183.89      -12196.426     -32351.937      2.0397933     -53561.642    
     25100   3229.5546     -8792.7478     -13438.487     -36559.635      2.0397933     -53571.006    
     25200   3041.2254     -24608.859     -29101.42      -24663.157      2.0397933     -53391.46     
     25300   2955.8462     -5616.1001     -4428.7079      3179.4119      2.0397933     -53310.363    
     25400   3222.3967     -7456.9445     -26208.772     -30007.477      2.0397933     -53435.576    
     25500   3041.2436     -12022.365     -9266.2038     -16794.218      2.0397933     -53333.285    
     25600   3208.4448     -31648.006     -33521.662     -3669.1293      2.0397933     -53436.052    
     25700   3060.9479      1610.9413     -31854.609      3768.5137      2.0397933     -53411.488    
     25800   2994.6246     -1787.2355     -4045.1755      14389.222      2.0397933     -53528.906    
     25900   3199.6853      10822.591      13819.762      4473.6455      2.0397933     -53776.092    
     26000   2685.4241     -22728.261     -10171.811     -18635.603      2.0397933     -53547.638    
     26100   2819.946      -15122.285     -14398.349     -18834.201      2.0397933     -53606.039    
     26200   2860.2761     -30265.836     -8431.2262     -20821.53       2.0397933     -53587.243    
     26300   2862.3479     -10708.225     -16326.245     -17191.862      2.0397933     -53510.2      
     26400   3288.4361     -7236.4122     -28000.02       985.51002      2.0397933     -53648.243    
     26500   2861.9056     -5397.9803     -26795.579     -16252.935      2.0397933     -53355.856    
     26600   2795.9283     -24230.843     -36292.595     -12761.041      2.0397933     -53278.961    
     26700   3080.3581     -9147.3886     -10532.561     -4881.2093      2.0397933     -53397.738    
     26800   3392.7584     -5048.1725     -23015.12      -19926.657      2.0397933     -53544.705    
     26900   3213.9407     -26992.86      -3038.4238     -27222.323      2.0397933     -53449.976    
     27000   3037.7155      713.18754     -23169.192     -6345.1771      2.0397933     -53386.928    
     27100   2979.7536      15205.225     -28347.2       -43715.026      2.0397933     -53402.474    
     27200   2983.9207      1596.4317      1283.7049     -20361.449      2.0397933     -53438.136    
     27300   3017.0591     -12036.889     -11899.905     -31077.608      2.0397933     -53483.701    
     27400   2892.6938     -37973.914     -24395.161     -28667.909      2.0397933     -53432.749    
     27500   3167.1254     -6596.9271     -22997.202      11922.45       2.0397933     -53580.718    
     27600   3060.3367     -1491.2748     -5782.428      -22123.76       2.0397933     -53524.763    
     27700   3001.3937     -17313.347     -21517.355     -22640.329      2.0397933     -53496.117    
     27800   2967.8634     -7553.6835     -4969.6317     -13471.389      2.0397933     -53459.32     
     27900   3116.0957      12288.85      -6361.3521     -7151.3541      2.0397933     -53514.218    
     28000   3053.6101      4774.0631      10208.364     -6277.835       2.0397933     -53441.41     
     28100   3253.5801     -6978.9445      16020.419      12396.451      2.0397933     -53456.825    
     28200   3299.5758     -926.18882     -9309.66       -18535.986      2.0397933     -53371.047    
     28300   3370.086      -14301.536     -28077.594     -16088.029      2.0397933     -53328.051    
     28400   3039.9777     -9596.4518     -15744.955     -11960.443      2.0397933     -53084.709    
     28500   3295.5428     -6815.918      -5422.4271     -6240.3985      2.0397933     -53176.069    
     28600   3527.1237     -11578.147     -33600.953     -3684.9711      2.0397933     -53271.308    
     28700   3346.7762     -4301.6188     -17051.603     -5278.0822      2.0397933     -53233.148    
     28800   3012.4164      3119.4176     -3280.0651      8886.6778      2.0397933     -53200.842    
     28900   3115.1827     -1812.9798     -17431.927     -8787.9579      2.0397933     -53384.473    
     29000   2981.9769     -9704.473      -23897.772     -649.82799      2.0397933     -53386.476    
     29100   2922.6688     -5305.0602     -22186.39      -24681.441      2.0397933     -53394.315    
     29200   2984.8863     -4342.4646     -12879.452     -11833.282      2.0397933     -53439.952    
     29300   2916.2065      8343.3263     -3514.5932      16440.098      2.0397933     -53406.251    
     29400   3060.9799     -9096.9289     -22330.767     -7283.0258      2.0397933     -53489.75     
     29500   3160.1393      6192.6121     -21784.693     -20822.701      2.0397933     -53570.717    
     29600   2722.0424      615.15738     -43474.15      -14699.084      2.0397933     -53366.626    
     29700   2769.1465     -14058.453     -19908.501     -1008.0349      2.0397933     -53388.05     
     29800   2975.5857     -18699.854     -7055.8617     -37624.855      2.0397933     -53432.858    
     29900   2953.5387     -2077.4044     -5399.965      -10373.078      2.0397933     -53334.096    
     30000   3006.1236     -5403.6894      32615.213      1164.6161      2.0397933     -53301.858    
     30100   3026.7659     -21315.987     -16563.324     -14062.928      2.0397933     -53272.954    
     30200   3102.6891     -9643.1508     -18086.439     -31113.937      2.0397933     -53258.35     
     30300   3131.8157      7727.1101     -21323.972     -22967.301      2.0397933     -53236.399    
     30400   3128.4061     -18678.815     -32367.574     -11899.397      2.0397933     -53214.618    
     30500   2964.193      -333.61668     -4279.6995     -12297.169      2.0397933     -53114.848    
     30600   3180.6888     -3133.7447      6260.6338     -14970.497      2.0397933     -53275.52     
     30700   3163.8063     -38214.285     -22997.837     -16756.186      2.0397933     -53402.23     
     30800   2970.4826     -20735.667     -36475.43      -20710.699      2.0397933     -53437.194    
     30900   2775.275       6886.7888      5516.8131     -2102.614       2.0397933     -53389.733    
     31000   3064.939       3292.5392      6095.1787      5842.4193      2.0397933     -53579.998    
     31100   3101.1763      4438.8662      1241.6304     -6598.7274      2.0397933     -53627.948    
     31200   2780.9552     -10545.6       -11238.37      -1676.9448      2.0397933     -53470.525    
     31300   2787.3884     -8026.146      -18535.637      989.5855       2.0397933     -53470.018    
     31400   3019.5861     -13093.097     -5892.6863     -20553.346      2.0397933     -53539.673    
     31500   2889.1311     -11534.397     -471.91494     -5349.2441      2.0397933     -53355.77     
     31600   3102.539      -1595.1952     -6995.5967     -3614.7228      2.0397933     -53353.052    
     31700   3037.5484     -24533.673     -10302.936      1019.4256      2.0397933     -53239.599    
     31800   3283.4852      14430.268      16293.608      1132.115       2.0397933     -53340.172    
     31900   2976.3151      8985.3553     -5494.1081      527.47308      2.0397933     -53178.862    
     32000   3299.166      -14720.162     -4729.1608      1213.1053      2.0397933     -53405.306    
     32100   3230.8556     -25780.619     -21151.674     -2213.4205      2.0397933     -53459.451    
     32200   3069.3455     -17728.109     -21423.09      -9652.4756      2.0397933     -53437.043    
     32300   3128.7102     -19359.049      1820.1774      6106.2392      2.0397933     -53498.6      
     32400   3175.727       2809.3648      8550.4881      2636.75        2.0397933     -53545.274    
     32500   3300.3162      13754.549      3543.1163      4668.2391      2.0397933     -53673.004    
     32600   2971.3428     -18414.829     -14811.555      1191.8615      2.0397933     -53597.713    
     32700   2961.9912     -11647.295     -15542.292     -11610.374      2.0397933     -53657.533    
     32800   3057.982       8445.2446      5766.9836     -2365.4997      2.0397933     -53742.622    
     32900   2796.5131     -18316.243     -1446.1337     -26705.324      2.0397933     -53616.632    
     33000   2996.4198     -5887.3402     -30014.107     -9414.8307      2.0397933     -53707.925    
     33100   2793.1186     -26934.927     -27856.221     -12797.778      2.0397933     -53552.653    
     33200   2951.3068     -6696.1085     -4190.1874     -13729.069      2.0397933     -53536.793    
     33300   3060.4663      7025.9742     -15415.06      -31318.593      2.0397933     -53409.552    
     33400   3296.5748     -18215.357     -1144.9605     -28198.302      2.0397933     -53445.143    
     33500   3411.2709     -7509.8494     -15246.358     -2384.3163      2.0397933     -53480.8      
     33600   3096.6977     -14724.395     -30375.265     -5931.4573      2.0397933     -53330.138    
     33700   2899.8077     -16878.445     -21716.524     -10357.816      2.0397933     -53287.196    
     33800   2909.6068     -8646.9324     -22050.27      -5313.2093      2.0397933     -53363.544    
     33900   3052.7272     -12273.878     -42315.413     -22331.951      2.0397933     -53495.244    
     34000   3015.1846     -11031.039     -7828.8403     -3801.5657      2.0397933     -53499.649    
     34100   3087.5125     -24698.137     -24655.786     -25831.507      2.0397933     -53559.538    
     34200   2966.423       583.44239     -5839.5674      1798.5403      2.0397933     -53515.536    
     34300   2807.2319     -1322.0161      15634.697      3664.9343      2.0397933     -53478.359    
     34400   2731.9165      12197.168      20333.616     -15946.451      2.0397933     -53495.493    
     34500   2857.8589     -6081.5921     -13173.714     -38644.512      2.0397933     -53599.18     
     34600   2768.4937     -10560.21      -21531.852     -13418.568      2.0397933     -53548.532    
     34700   2799.823      -7401.7066     -23381.285     -12339.643      2.0397933     -53522.013    
     34800   3169.099       236.65346     -36119.841     -13490.696      2.0397933     -53622.601    
     34900   3364.414       1076.1689     -142.96522     -26525.639      2.0397933     -53621.299    
     35000   3252.6325     -2365.8676     -11457.439     -13840.766      2.0397933     -53518.581    
     35100   3115.5058     -15631.552     -14553.047      3033.9437      2.0397933     -53456.914    
     35200   3208.0593     -13833.278      1465.5773     -33089.714      2.0397933     -53561.476    
     35300   3182.2862     -4215.6492     -3721.9596     -995.31764      2.0397933     -53629.073    
     35400   2872.592      -11681.542     -23862.276      6205.0314      2.0397933     -53542.091    
     35500   2788.9719     -19647.041     -12644.57      -9653.1689      2.0397933     -53529.742    
     35600   3035.4369     -7668.8109     -12169.968     -4310.0307      2.0397933     -53651.989    
     35700   2820.659      -11136.585     -19421.438      16201.432      2.0397933     -53507.005    
     35800   3080.5269      14917.409     -12695.845     -1745.1446      2.0397933     -53621.556    
     35900   2961.6317     -10672.402     -19709.943     -1526.9336      2.0397933     -53535.587    
     36000   2869.7607     -19250.781      8147.6083      6061.7624      2.0397933     -53454.976    
     36100   2914.059       4257.6111     -1989.4765     -5229.8891      2.0397933     -53418.035    
     36200   3159.1894     -14319.176      5472.7153     -11021.481      2.0397933     -53465.33     
     36300   3055.5984     -10207.128     -15779.575     -27165.48       2.0397933     -53334.282    
     36400   3154.9543      6349.089      -9017.5703     -18655.363      2.0397933     -53287.291    
     36500   3145.8179     -7125.143      -6850.012      -2516.6132      2.0397933     -53168.78     
     36600   3140.3521     -17153.281      4154.5526     -13797.673      2.0397933     -53097.293    
     36700   3191.5005     -31704.978     -11048.434     -36111.871      2.0397933     -53131.545    
     36800   3273.4955      7475.193      -6012.1229     -7383.5379      2.0397933     -53290.492    
     36900   2898.0472     -26416.236     -35180.673     -3837.0869      2.0397933     -53273.747    
     37000   3047.0135      2015.8126     -15888.083     -7598.8336      2.0397933     -53448.622    
     37100   2622.8677     -10150.179     -21006.719      9937.1319      2.0397933     -53248.851    
     37200   2802.7676     -6712.3618     -14125.67       5724.0266      2.0397933     -53349.187    
     37300   2907.6337     -7706.5383     -17608.747     -4866.1826      2.0397933     -53391.308    
     37400   3276.7382     -9910.9383     -23929.204      4061.1542      2.0397933     -53565.748    
     37500   2904.5408     -4771.8189     -19336.235     -4209.4575      2.0397933     -53319.643    
     37600   3179.3227     -26424.547     -20996.416     -7997.7389      2.0397933     -53423.334    
     37700   3122.9155     -19556.136     -16895.009     -17931.528      2.0397933     -53367.362    
     37800   3237.1818     -7489.211      -7683.9668     -15013.282      2.0397933     -53408.044    
     37900   3075.5164      7907.565      -9196.8926      1919.8998      2.0397933     -53355.368    
     38000   2883.7245     -5221.8387     -16337.741      7573.2937      2.0397933     -53348.976    
     38100   2776.5888     -17354.422      2741.3308      5633.9674      2.0397933     -53407.677    
     38200   2760.8833     -23589.064     -32794.508      10916.242      2.0397933     -53446.474    
     38300   2776.5834     -27962.833      11294.593     -15776.251      2.0397933     -53420.459    
     38400   2959.0254     -9682.2595     -19490.856      14183.696      2.0397933     -53444.487    
     38500   2994.065      -9169.619      -21228.495      1400.1274      2.0397933     -53390.987    
     38600   3053.9987     -17232.859     -12481.943      14354.499      2.0397933     -53390.152    
     38700   3137.6835     -2024.9393     -10928.551     -23765.206      2.0397933     -53427.376    
     38800   3194.8016     -2238.1608     -7941.5127     -12667.139      2.0397933     -53448.67     
     38900   3006.2178     -11492.074     -10190.82      -9616.8637      2.0397933     -53347.328    
     39000   3108.3532     -22356.719     -21350.825      3422.8896      2.0397933     -53409.516    
     39100   2965.406      -13069.528     -21011.06       9417.131       2.0397933     -53332.43     
     39200   3007.5294      8568.6433     -12520.664     -9138.3937      2.0397933     -53343.619    
     39300   3329.1887     -11273.855      1898.7221     -8011.9794      2.0397933     -53524.922    
     39400   3011.3975     -15588.636     -19710.965     -37573.878      2.0397933     -53413.563    
     39500   2937.4782     -19134.106     -19420.543     -32488.901      2.0397933     -53442.865    
     39600   2630.1667     -17684.311     -13499.062      6684.3055      2.0397933     -53381.716    
     39700   2675.5486     -23306.898     -24471.567     -26307.852      2.0397933     -53548.704    
     39800   2564.6756     -35902.089     -41761.912     -22947.96       2.0397933     -53576.497    
     39900   2699.1143     -7543.0479     -30387.836     -15260.881      2.0397933     -53640.737    
     40000   2881.6925     -20710.033     -25854.416     -13364.203      2.0397933     -53683.511    
     40100   2778.5226     -11541.592     -17260.129     -12719.144      2.0397933     -53573.821    
     40200   2834.7161     -21195.028     -13101.025     -9478.2763      2.0397933     -53561.217    
     40300   3052.48       -18227.373     -19589.93      -22009.533      2.0397933     -53627.853    
     40400   2755.4316     -11007.84      -27346.55      -9108.3275      2.0397933     -53405.254    
     40500   3069.6203     -30850         -3424.6485     -19359.759      2.0397933     -53512.945    
     40600   3010.9789     -20245.947     -983.3169       3143.7675      2.0397933     -53401.243    
     40700   3164.7509     -2122.4326     -9350.6926     -16664.655      2.0397933     -53410.055    
     40800   3243.9337     -10349.015     -17912.917      5694.9721      2.0397933     -53416.584    
     40900   3123.7551     -7440.1467      12747.336      4113.8623      2.0397933     -53368.88     
     41000   2922.7451     -27818.252     -12851.02      -12274.214      2.0397933     -53332.016    
     41100   2785.2846     -21785.75      -41164.287     -49225.281      2.0397933     -53407.675    
     41200   2787.3002     -11901.65       2150.7722      4569.9125      2.0397933     -53527.673    
     41300   3011.27       -14856.505      712.19901     -19134.504      2.0397933     -53667.76     
     41400   3022.6523     -24380.83      -24651.94      -13453.703      2.0397933     -53651.75     
     41500   2758.2413      8014.0742      8442.6642     -20754.524      2.0397933     -53456.119    
     41600   2638.8748      403.37358     -13766.731     -12883.296      2.0397933     -53325.182    
     41700   3015.8904     -27413.213     -4036.6209     -15055.936      2.0397933     -53436.434    
     41800   3060.7906      1695.359       16282.413     -5928.2692      2.0397933     -53376.151    
     41900   3000.1321     -3309.0019     -11728.038     -17383.414      2.0397933     -53332.787    
     42000   3038.0994     -8877.9363      12910.132      9223.9787      2.0397933     -53375.917    
     42100   3108.4933     -7704.3638      10188.238      12128.946      2.0397933     -53441.876    
     42200   3035.512      -1510.1283     -14583.958     -11871.823      2.0397933     -53442.776    
     42300   3128.3396     -22563.529     -4711.564      -18406.06       2.0397933     -53557.553    
     42400   2811.6832     -10742.201     -12884.404     -7385.9851      2.0397933     -53505.274    
     42500   2705.3707     -29017.913     -25006.483     -17635.187      2.0397933     -53561.752    
     42600   2810.8319      6213.5068     -17852.095      2082.4221      2.0397933     -53658.955    
     42700   2811.9889     -2548.1115     -22454.581     -23102.64       2.0397933     -53654.355    
     42800   2771.8488      7256.6353      1718.5665     -9639.7578      2.0397933     -53603.043    
     42900   3011.795      -28250.151     -25103.348      860.50517      2.0397933     -53620.802    
     43000   3080.3432     -2401.417      -18052.231     -3312.8343      2.0397933     -53465.257    
     43100   2863.2719     -6197.7028     -14560.342     -24628.298      2.0397933     -53244.266    
     43200   3107.1602     -13677.768     -19702.52       3824.6447      2.0397933     -53346.134    
     43300   3106.3534     -10187.169     -5961.9018     -19583.036      2.0397933     -53345.479    
     43400   3132.0916      1568.7259     -22083.725      6854.5267      2.0397933     -53391.843    
     43500   3104.3483     -16369.283     -22980.807     -16375.707      2.0397933     -53456.622    
     43600   2898.6154     -34688.808     -16431.667     -23257.881      2.0397933     -53450.922    
     43700   3134.8132     -24453.339     -18549.912     -8181.5672      2.0397933     -53655.689    
     43800   2818.3887     -6230.0333     -18951.153      4515.3352      2.0397933     -53527.963    
     43900   2734.6078     -31212.292     -34379.299     -18985.393      2.0397933     -53480.533    
     44000   2907.0042     -8983.9894     -20450.1       -24807.542      2.0397933     -53521.067    
     44100   3094.4083     -2329.4575     -13166.423     -8515.3461      2.0397933     -53571.611    
     44200   2991.5294     -6793.7876     -13076.849     -15932.95       2.0397933     -53492.355    
     44300   2949.4225     -23648.904     -23192.303     -19180.422      2.0397933     -53476.887    
     44400   2921.053       1433.4233     -20307.296     -32908.983      2.0397933     -53493.983    
     44500   2903.7277     -11369.539     -3512.0483     -18834.884      2.0397933     -53493.843    
     44600   2927.4682     -11410.895     -18886.046     -18404.177      2.0397933     -53502.146    
     44700   2869.3606     -3162.5894     -34762.453     -3477.6863      2.0397933     -53455.225    
     44800   3077.4667      22077.474     -8172.37       -11532.291      2.0397933     -53514.621    
     44900   3176.9917     -12296.009     -12934.561      5325.5127      2.0397933     -53436.579    
     45000   3272.0838     -20003.93      -8957.42       -5577.0983      2.0397933     -53346.62     
     45100   3305.9405     -770.00053     -2769.1007      3818.7922      2.0397933     -53312.486    
     45200   3107.2597     -11097.44      -14870.289     -23765.212      2.0397933     -53235.878    
     45300   3163.8465      19436.49      -4782.8969     -4050.8498      2.0397933     -53356.745    
     45400   3043.22       -20141.465      3982.6246     -15488.836      2.0397933     -53387.276    
     45500   3069.3273      5589.4605      3113.5326     -2847.3125      2.0397933     -53471.776    
     45600   3080.4339     -24677.353     -8615.9694     -4971.0196      2.0397933     -53518.886    
     45700   2918.4495      11005.057     -28180.417      2172.2501      2.0397933     -53441.34     
     45800   2938.3796      26061.235     -21656.441      9639.7263      2.0397933     -53466.564    
     45900   2869.2345     -20504.061     -40478.17      -18241.854      2.0397933     -53431.205    
     46000   2896.8486     -12458.398     -16780.337      32797.448      2.0397933     -53410.462    
     46100   3039.4241     -16713.492     -15057.035     -13478.792      2.0397933     -53381.728    
     46200   3033.1155     -12486.895     -60296.81      -12366.127      2.0397933     -53230.118    
     46300   3046.3349     -13903.312     -45568.737     -11891.527      2.0397933     -53140.452    
     46400   3293.0112     -19338.344     -11944.099     -13387.749      2.0397933     -53253.784    
     46500   3191.3799     -2967.5951     -5133.9143      5529.9961      2.0397933     -53237.208    
     46600   3194.1897     -6138.757      -11519.979     -6967.9743      2.0397933     -53301.613    
     46700   3053.3879     -7915.4492     -9709.8861     -15322.03       2.0397933     -53316.324    
     46800   2959.7541     -32975.071     -26626.756     -22372.534      2.0397933     -53332.14     
     46900   3157.3188     -9740.8477     -5088.142       17906.225      2.0397933     -53464.315    
     47000   3039.3089     -14091.473     -5368.4181      15426.732      2.0397933     -53425.576    
     47100   3009.8715     -15946.981      4571.0905     -16428.244      2.0397933     -53429.085    
     47200   3147.416       3317.6824      11842.663     -3092.7366      2.0397933     -53511.337    
     47300   2978.0389      15691.6       -10652.304     -12781.086      2.0397933     -53424.221    
     47400   3055.2683     -22098.747      14681.662     -18398.036      2.0397933     -53453.295    
     47500   3107.1182     -12032.201     -20058.237     -5510.9401      2.0397933     -53432.569    
     47600   2898.6537     -17130.76      -9230.3096     -9698.6138      2.0397933     -53246.693    
     47700   3046.7717      7301.7563     -10081.813     -9951.6928      2.0397933     -53241.345    
     47800   3140.7595     -21603.807     -3676.5107     -14640.263      2.0397933     -53231.258    
     47900   3281.0039     -14798.396     -4904.9471     -8349.6136      2.0397933     -53290.908    
     48000   3265.5223     -1065.6554     -22406.372     -28303.56       2.0397933     -53300.553    
     48100   2984.1655     -18785.475      2618.9959     -8344.4104      2.0397933     -53244.01     
     48200   2826.7989     -10571.043     -35160.654     -14170.943      2.0397933     -53305.168    
     48300   2965.8521     -6688.861       11251.297     -10842.112      2.0397933     -53447.668    
     48400   3081.1487     -14102.933     -28293.45       10003.219      2.0397933     -53532.917    
     48500   3148.6685     -14329.87      -4951.2883     -9874.0554      2.0397933     -53595.5      
     48600   3012.6067     -14512.947     -29916.979     -11088.824      2.0397933     -53544.559    
     48700   2993.3856     -5673.586      -15816.901     -11544.653      2.0397933     -53549.641    
     48800   2839.2546     -1223.027      -10127.171      1417.3902      2.0397933     -53488.73     
     48900   2789.1266      4463.0252     -12679.429     -10241.545      2.0397933     -53490.627    
     49000   2929.4131     -20120.91      -25954.332     -6955.6292      2.0397933     -53583.64     
     49100   2705.8756      3194.6842     -23373.685     -5089.9489      2.0397933     -53423.888    
     49200   3176.3859     -21993.684     -19352.99      -17951.986      2.0397933     -53582.519    
     49300   3276.534      -12600.016     -27977.009     -15276.058      2.0397933     -53549.406    
     49400   3479.7387      2518.153      -2498.325      -8706.0914      2.0397933     -53623.263    
     49500   3085.7201      10711.065     -11280.549     -27106.087      2.0397933     -53445.807    
     49600   3173.896      -6587.0942      1854.9697      5187.9625      2.0397933     -53583.62     
     49700   2789.5103     -22663.103     -17988.728      81.17043       2.0397933     -53467.277    
     49800   2838.8038     -2607.4146     -14694.486     -31638.466      2.0397933     -53531.263    
     49900   2754.5232     -10163.814     -31896.102     -34497.284      2.0397933     -53459.375    
     50000   2871.8549     -31855.502     -23451.488     -12896.302      2.0397933     -53440.84     
     50100   2881.8955     -23171.372     -7734.6279     -3369.0443      2.0397933     -53375.196    
     50200   2889.6167     -39014.965     -18737.899     -10691.715      2.0397933     -53360.586    
     50300   2960.235      -23716.962     -37292.615     -10209.151      2.0397933     -53377.185    
     50400   3028.5359     -6627.6439     -18576.051     -8285.9932      2.0397933     -53389.569    
     50500   2894.2853     -10915.378     -13701.696      28355.559      2.0397933     -53312.668    
     50600   3178.8308     -7434.0246     -16436.793      5623.6173      2.0397933     -53499.871    
     50700   3158.6258     -7217.2157     -20559.656     -12890.546      2.0397933     -53562.2      
     50800   2828.6253     -19818.444     -23485.397     -10121.358      2.0397933     -53505.547    
     50900   2731.4096     -6338.7151     -15939.747     -20916.082      2.0397933     -53538.436    
     51000   2885.7474     -10258.391     -12854.645     -9499.1651      2.0397933     -53645.453    
     51100   2817.0273     -6860.4962     -17211.938      5157.5116      2.0397933     -53574.345    
     51200   2738.5818      12898.187     -27860.817      14421.582      2.0397933     -53488.919    
     51300   2991.7931     -1859.0987      9613.4347     -7610.4797      2.0397933     -53581.23     
     51400   2942.0877     -4208.5932      15263.563     -9653.0424      2.0397933     -53520.709    
     51500   2933.1213     -20964.38      -30924.287     -17678.551      2.0397933     -53486.592    
     51600   3072.8211     -13570.055     -19010.425     -35568.421      2.0397933     -53544.904    
     51700   2793.9894     -21893.243     -15099.889     -24425.893      2.0397933     -53390.272    
     51800   3034.1381      3748.0524     -13647.096     -38.647537      2.0397933     -53511.488    
     51900   2855.1932     -21392.73      -27420.434     -21266.022      2.0397933     -53397.663    
     52000   2790.3539     -8601.5287     -20659.903     -29137.312      2.0397933     -53305.851    
     52100   3234.699      -10633.578      2243.7513      25459.933      2.0397933     -53480.646    
     52200   3252.8171      20223.663      681.97154      1009.5434      2.0397933     -53438.209    
     52300   3078.1951      208.00949      20095.88       11571.157      2.0397933     -53291.799    
     52400   3054.2399     -16125.306     -43563.574      6727.1171      2.0397933     -53196.222    
     52500   3360.6638     -9792.3303     -26396.64      -836.71659      2.0397933     -53255.391    
     52600   3328.8809     -454.17238     -2420.9966     -3497.842       2.0397933     -53195.103    
     52700   3168.5964     -9513.4177      8655.3435     -15311.376      2.0397933     -53159.084    
     52800   3122.7997      4275.8576      15952.949      17028.234      2.0397933     -53264.221    
     52900   2691.1659     -19885.455     -6211.015      -24814.835      2.0397933     -53130.949    
     53000   2947.6156     -23957.168     -23798.385     -13518.609      2.0397933     -53319.551    
     53100   2802.696      -25743.015     -25164.429     -16876.973      2.0397933     -53249.669    
     53200   2887.3121     -11759.547     -13135.681     -8369.195       2.0397933     -53273.028    
     53300   2969.3035     -2636.9801     -21351.838     -18092.897      2.0397933     -53270.288    
     53400   2910.8485     -35775.762     -7964.7482     -19635.003      2.0397933     -53164.965    
     53500   3196.1238     -29509.713     -18494.667     -19887.646      2.0397933     -53217.871    
     53600   3396.2085      1417.3555      9222.191      -9914.3716      2.0397933     -53220.473    
     53700   3238.0237      15686.22       12994.222      3602.5684      2.0397933     -53082.554    
     53800   3579.2065     -30671.594     -22973.302     -16806.725      2.0397933     -53296.13     
     53900   3032.9363     -24566.691     -17326.542     -24159.084      2.0397933     -53214.329    
     54000   3047.7484     -12319.634     -23079.956     -13983.588      2.0397933     -53374.767    
     54100   2848.6862     -23810.637     -12103.366     -10714.578      2.0397933     -53338.932    
     54200   2921.8734     -6191.346      -7145.5064      28634.378      2.0397933     -53426.414    
     54300   2803.7754     -16527.556     -10687.863     -14916.079      2.0397933     -53387.85     
     54400   2976.0093     -11837.151     -1915.8991     -14617.898      2.0397933     -53485.813    
     54500   2992.0447     -32205.895     -31054.524      4543.8181      2.0397933     -53493.28     
     54600   2846.5619     -19477.606     -11443.755      302.88303      2.0397933     -53402.138    
     54700   2903.7782     -31505.406     -6438.7562     -5709.5842      2.0397933     -53388.281    
     54800   3072.0913     -29354.514     -29013.661     -43624.687      2.0397933     -53414.973    
     54900   3110.2552     -4143.9767      461.00908     -28593.752      2.0397933     -53353.433    
     55000   3056.9182     -20228.224     -11669.591      957.57132      2.0397933     -53251.28     
     55100   3120.1097     -173.16596     -12782.798     -8377.6635      2.0397933     -53250.405    
     55200   3031.4152      11221.441      9616.6344     -10355.128      2.0397933     -53205.854    
     55300   2986.6934     -9253.8938     -22005.179     -27056.752      2.0397933     -53286.484    
     55400   2991.3309     -18674.835     -9906.5711     -19148.866      2.0397933     -53459.457    
     55500   3114.9226     -9911.2889     -14715.86      -17205.934      2.0397933     -53607.75     
     55600   3070.5452     -21698.844      9162.2584     -9213.4325      2.0397933     -53615.875    
     55700   3181.1225     -6167.688       3015.9176      1536.5097      2.0397933     -53697.246    
     55800   2804.8424     -9085.3477     -13871.826     -14524.661      2.0397933     -53512.185    
     55900   2897.6482     -17978.98      -23085.811     -19612.125      2.0397933     -53566.517    
     56000   2656.3026     -4499.8412     -12217.104     -29669.793      2.0397933     -53399.007    
     56100   3383.874      -9038.27       -24951.931     -10362.766      2.0397933     -53706.26     
     56200   3148.9844     -19943.617     -48475.182     -5202.7442      2.0397933     -53447.013    
     56300   2996.9095     -14712.475     -25204.073     -42023.787      2.0397933     -53250.154    
     56400   3236.9198      9490.3722     -10970.606     -12578.812      2.0397933     -53313.714    
     56500   3059.3359     -5406.0855     -17827.488     -18767.923      2.0397933     -53205.943    
     56600   2822.4429     -5713.4604     -619.31622     -21856.002      2.0397933     -53101.469    
     56700   3251.887      -20709.776      4535.3104     -13360.91       2.0397933     -53405.239    
     56800   3136.6284      4363.5884     -1339.8665     -1260.4954      2.0397933     -53456.1      
     56900   3041.7872     -14817.352     -8768.3382     -909.78953      2.0397933     -53519.989    
     57000   2694.9786     -21694.864     -19421.7       -20069.089      2.0397933     -53361.977    
     57100   3139.8287     -4703.7191     -23669.001     -7104.8977      2.0397933     -53603.602    
     57200   2965.8939     -28180.062     -10235.082     -24939.307      2.0397933     -53487.41     
     57300   2902.9481     -30864.776     -25366.525     -9209.3168      2.0397933     -53404.56     
     57400   2962.0812     -25787.857     -7730.0481     -15771.705      2.0397933     -53350.694    
     57500   3073.4512     -30338.22      -22728.387     -18910.082      2.0397933     -53328.447    
     57600   3192.068      -9232.9065     -23843.462     -24472.695      2.0397933     -53340.992    
     57700   3063.4356      12683.43      -1974.1563     -12886.486      2.0397933     -53253.967    
     57800   2972.0888     -15396.253      1662.9553     -15097.495      2.0397933     -53231.764    
     57900   3059.4713     -22414.199     -27181.242     -18103.203      2.0397933     -53393.112    
     58000   2861.1249     -30789.537     -8039.2077     -25800.111      2.0397933     -53460.751    
     58100   2754.2295     -20500.174      3742.6234     -18154.774      2.0397933     -53466.554    
     58200   3023.3361     -18961.7        11788.827     -11170.353      2.0397933     -53610.542    
     58300   3014.8773     -4154.5025     -15885.965     -15702.421      2.0397933     -53580.957    
     58400   2904.1972     -3625.5545     -5824.4642     -12039.262      2.0397933     -53454.062    
     58500   3055.7591     -21332.635     -5086.6746     -8253.2504      2.0397933     -53445.77     
     58600   3005.1642     -14574.668      134.15093     -22280.846      2.0397933     -53360.82     
     58700   2841.4089     -16489.934     -33021.628     -28646.834      2.0397933     -53259.306    
     58800   2773.5256     -27304.994     -37442.541     -2257.6633      2.0397933     -53219.386    
     58900   3197.5013     -10296.297     -130.11111     -16600.455      2.0397933     -53425.966    
     59000   3343.1444     -12161.689     -3390.2679     -3379.8762      2.0397933     -53473.195    
     59100   2836.3566     -30250.231     -25191.096     -20216.028      2.0397933     -53194.37     
     59200   2966.8758     -23280.146     -19810.795     -7601.8347      2.0397933     -53277.11     
     59300   3166.9993     -24313.109     -13589.105     -38474.919      2.0397933     -53399.273    
     59400   3228.5786     -12232.586     -2108.7302     -15504.538      2.0397933     -53497.013    
     59500   2900.2645      7679.0568     -25194.704     -26846.698      2.0397933     -53420.785    
     59600   2862.2541     -25723.37      -20629.148     -14050.42       2.0397933     -53494.936    
     59700   2883.2977      20653.028     -19389.587     -10445.143      2.0397933     -53561.864    
     59800   2826.5016     -29180.562     -22758.162     -13262.82       2.0397933     -53544.934    
     59900   2852.2904     -40526.709     -36248.27      -7503.558       2.0397933     -53530.826    
     60000   2955.8423     -19906.827      10932.271     -13364.495      2.0397933     -53506.465    
     60100   3132.6798     -34883.8       -10763.147     -29019.656      2.0397933     -53467.211    
     60200   3260.0848     -32629.421     -18834.056     -19325.759      2.0397933     -53444.913    
     60300   3170.1925     -18774.213     -21203.98      -18163.196      2.0397933     -53379.998    
     60400   2915.1822     -34707.743     -11522.143      721.6282       2.0397933     -53241.727    
     60500   3084.8368      5525.9994     -21159.694     -28965.873      2.0397933     -53348.719    
     60600   2975.3715     -11868.239     -16275.379     -16789.139      2.0397933     -53333.429    
     60700   3136.1891     -7454.2192     -10286.748     -15724.969      2.0397933     -53474.059    
     60800   3049.1243     -19217.056     -16869.409      6882.4175      2.0397933     -53473.474    
     60900   3132.0863     -15200.383     -17265.243     -15869.204      2.0397933     -53598.864    
     61000   2793.6127     -42437.08      -28772.407     -46135.036      2.0397933     -53532.312    
     61100   2645.0816     -34335.816     -30073.965     -37358.842      2.0397933     -53533.531    
     61200   2697.4992     -23172.387     -28446.386     -24603.308      2.0397933     -53568.908    
     61300   2784.9484     -1820.3613     -16168.011     -4291.6221      2.0397933     -53548.714    
     61400   2826.0282      12467.134      649.51106     -5987.4362      2.0397933     -53450.869    
     61500   3070.1741     -17728.668     -8431.2773     -5926.0188      2.0397933     -53477.545    
     61600   2959.302       11217.782     -9710.6274     -16242.639      2.0397933     -53385.503    
     61700   3229.2817     -7767.214      -4355.7794     -5307.5835      2.0397933     -53528.277    
     61800   3189.723       12882.642     -13188.263     -13937.91       2.0397933     -53513.733    
     61900   2958.4425     -2750.7491     -21945.699     -11331.942      2.0397933     -53411.085    
     62000   2838.8598     -15124.368     -18387.112     -10232.034      2.0397933     -53348.208    
     62100   2899.6567     -22412.505      3227.1913     -8389.423       2.0397933     -53359.742    
     62200   3059.9263      7387.6309     -12482.865     -8108.7059      2.0397933     -53409.124    
     62300   3067.0796     -22939.086     -28838.716     -19042.02       2.0397933     -53358.67     
     62400   3249.5635     -21112.889     -24369.282     -10042.264      2.0397933     -53378.827    
     62500   2987.9275     -13254.832      2418.6077     -28785.576      2.0397933     -53154.701    
     62600   3021.0178      11171.335     -21691.712     -16486.085      2.0397933     -53082.707    
     62700   3287.7146     -6068.8373      1423.0393     -2491.9323      2.0397933     -53144.474    
     62800   3248.4069     -20400.992     -12203.85      -8104.8315      2.0397933     -53091.285    
     62900   3405.1008     -5166.7289     -11512.358     -15322.908      2.0397933     -53238.51     
     63000   3058.9499      3185.5775     -27389.315     -18298.449      2.0397933     -53253.883    
     63100   3198.9647     -2249.9121     -27430.902     -22589.823      2.0397933     -53446.195    
     63200   3126.0016     -24582.748     -1451.2049     -14712.966      2.0397933     -53446.276    
     63300   2925.8483     -10919.251     -14807.245      23666.158      2.0397933     -53373.956    
     63400   3046.7074      6088.3149      18827.097      2292.6302      2.0397933     -53505.049    
     63500   2905.3842     -1774.8802      12624.933      15531.883      2.0397933     -53486.969    
     63600   2770.5718     -3536.0587      14208.851      20949.063      2.0397933     -53453.604    
     63700   2808.2156     -10089.205      4545.1416     -10231.432      2.0397933     -53491.148    
     63800   2949.8134     -12931.555     -19504.773     -15867.849      2.0397933     -53538.113    
     63900   3031.0884      2311.1283     -14226.126      9608.1096      2.0397933     -53485.113    
     64000   2955.3896      22426.483     -14436.264      8618.9245      2.0397933     -53325.958    
     64100   2948.2035      11570.655     -26640.094      3045.0184      2.0397933     -53258.508    
     64200   3047.4729      11865.766      18841.756     -2086.8801      2.0397933     -53291.205    
     64300   3172.2954     -19323.123      2830.8103     -742.66655      2.0397933     -53370.241    
     64400   3007.181      -2601.5372      22612.046     -4899.9942      2.0397933     -53305.817    
     64500   2893.9821     -7491.6598      6981.3587     -1723.299       2.0397933     -53311.682    
     64600   2901.5681     -4550.7936     -12586.624     -12374.286      2.0397933     -53429.704    
     64700   2794.4407     -18135.623     -14520.593     -28139.018      2.0397933     -53458.623    
     64800   2821.2224      535.0621      -16421.841     -7906.1436      2.0397933     -53503.32     
     64900   2877.7453     -28507.058     -27695.738     -32052.042      2.0397933     -53525.9      
     65000   3022.899      -14922.757     -16305.471     -15440.792      2.0397933     -53543.646    
     65100   2789.4858     -9898.9954     -365.61685     -3724.1656      2.0397933     -53312.379    
     65200   3060.667       2970.1548     -15198.852     -10957.981      2.0397933     -53362.866    
     65300   3320.4776     -1052.4505     -9514.497      -15350.791      2.0397933     -53444.42     
     65400   3097.1344     -27724.892     -3546.4098     -8680.5712      2.0397933     -53311.688    
     65500   2860.1531     -19772.762     -27140.588     -1531.7361      2.0397933     -53197.548    
     65600   2853.4334     -16711.065     -29592.041     -11.539335      2.0397933     -53193.846    
     65700   3387.0491      4068.9877      3253.1947      22875.619      2.0397933     -53498.205    
     65800   2971.6484      3319.3306     -9111.5163     -2545.3568      2.0397933     -53318.647    
     65900   2981.4407     -6272.1457     -21012.966     -20557.464      2.0397933     -53352.661    
     66000   2786.6004     -9808.3684     -15007.761     -5797.5346      2.0397933     -53270.116    
     66100   3022.0576     -18440.114     -14566.799     -23540.544      2.0397933     -53416.748    
     66200   2719.2414     -19637.131     -25827.233     -18140.213      2.0397933     -53262.673    
     66300   2787.5505     -6220.7108     -19005.6       -7785.8327      2.0397933     -53299.718    
     66400   3101.2951      10845.825     -5886.929      -22178.285      2.0397933     -53460.433    
     66500   2839.9668     -9294.3265     -24899.744     -13044.978      2.0397933     -53284.999    
     66600   3223.6542     -17575.051     -17786.626     -14320.867      2.0397933     -53366.069    
     66700   3224.1207     -21074.265     -40034.6       -2984.5999      2.0397933     -53231.591    
     66800   3246.1662     -19392.642     -27323.973     -32110.867      2.0397933     -53188.253    
     66900   3323.026       22365.335     -12748.999     -8069.0674      2.0397933     -53260.504    
     67000   3290.1084     -6221.779      -6134.3741     -15296.803      2.0397933     -53362.614    
     67100   3068.4746     -18788.375     -16693.283     -22114.817      2.0397933     -53369.166    
     67200   2885.2966     -17310.771     -26748.876     -30736.207      2.0397933     -53327.618    
     67300   2673.3346      8677.6212     -15868.95      -3368.2509      2.0397933     -53231.457    
     67400   2910.0253      11480.2       -28871.856     -15260.213      2.0397933     -53347.635    
     67500   2983.53        3380.9851      10193.855      4452.0454      2.0397933     -53386.194    
     67600   3054.218      -1800.0319     -5845.9514      5393.8522      2.0397933     -53452.285    
     67700   2917.5849     -9599.9184     -6065.2244     -13953.354      2.0397933     -53423.526    
     67800   2696.8733     -13534.249      2443.9056      3966.4399      2.0397933     -53380.911    
     67900   2838.4015     -9320.7952     -13266.246     -223.20303      2.0397933     -53518.893    
     68000   2884.0627      1364.3475     -15569.94      -20582.341      2.0397933     -53584.241    
     68100   2831.3663     -8209.9684     -11888.174      13112.868      2.0397933     -53571.602    
     68200   2824.835      -15405.215     -6013.6244     -17279.791      2.0397933     -53527.446    
     68300   2755.0103     -8265.0863     -19171.286     -49596.991      2.0397933     -53341.975    
     68400   2987.3702     -3392.73       -701.29399     -24964.996      2.0397933     -53335.096    
     68500   3034.435      -9445.7828     -10849.904     -18900.272      2.0397933     -53300.938    
     68600   2937.7646     -8067.7307      1459.4741     -12861.226      2.0397933     -53231.453    
     68700   3087.2583     -27128.845     -18296.812     -33617.197      2.0397933     -53298.864    
     68800   3182.3812     -1712.8391     -12149.992      3426.0502      2.0397933     -53353.813    
     68900   3248.1213     -27755.576      5684.2612     -11319.14       2.0397933     -53464.314    
     69000   2853.8234     -19072.111     -18641.539     -23051.738      2.0397933     -53358.261    
     69100   2893.7303     -14093.201     -2891.1427     -27787.979      2.0397933     -53468.703    
     69200   2692.4178     -17160.184     -23202.928     -13569.151      2.0397933     -53401.06     
     69300   2786.2485     -7557.7399     -13800.501     -3269.1052      2.0397933     -53450.468    
     69400   3012.1957     -14054.718      563.54195     -13722.32       2.0397933     -53533.33     
     69500   2902.0448      4277.1644     -1858.5024     -6724.1931      2.0397933     -53408.884    
     69600   2750.2069     -2325.963       13682.031     -1489.8708      2.0397933     -53250.805    
     69700   2953.4088     -30084.031     -2865.3137     -16332.782      2.0397933     -53304.124    
     69800   2973.9174     -37790.736     -9389.6138     -14760.728      2.0397933     -53281.811    
     69900   3195.3392      17814.967     -8368.6647     -9016.9691      2.0397933     -53373.559    
     70000   2912.3538     -8718.6526     -19618.862     -22605.187      2.0397933     -53224.705    
     70100   3061.9346     -14137.068      3451.9389     -17257.84       2.0397933     -53336.657    
     70200   3159.8658     -25969.081     -11080.296     -9025.8464      2.0397933     -53455.78     
     70300   3054.9216     -20009.504      12097.4       -11818.615      2.0397933     -53520.25     
     70400   3001.0334     -12309.614     -20941.215     -27886.531      2.0397933     -53586.61     
     70500   2939.4232      2507.9206     -1810.9778      6077.5562      2.0397933     -53591.313    
     70600   2678.6515     -8309.4545     -8670.4512     -25178.917      2.0397933     -53454.226    
     70700   2854.0538     -21068.242      4603.1592     -23104.218      2.0397933     -53519.142    
     70800   2998.6662     -17017.87      -6226.2448     -22373.876      2.0397933     -53551.725    
     70900   3160.3516     -15001.5       -5531.4466     -32198.659      2.0397933     -53613.578    
     71000   2975.5206     -4021.4345     -21681.291     -14446.232      2.0397933     -53512.819    
     71100   3088.7277      11448.023     -4630.2753     -10278.569      2.0397933     -53596.483    
     71200   3123.7148     -6945.4927      8749.4281      4209.825       2.0397933     -53650.303    
     71300   3167.1158     -7789.3605      958.72587     -24130.667      2.0397933     -53703.794    
     71400   2772.5077      19065.54      -12630.921     -4793.4571      2.0397933     -53507.163    
     71500   2937.5409     -13596.148     -25417.626     -25300.648      2.0397933     -53597.523    
     71600   2893.5593     -34241.164     -4940.9152     -35072.465      2.0397933     -53558.326    
     71700   2809.7981     -14442.011     -4444.4478     -6324.2395      2.0397933     -53477.263    
     71800   3072.7074     -2201.2953     -11164.204      1862.4522      2.0397933     -53555.733    
     71900   2990.0777     -13279.657     -24703.146     -25350.841      2.0397933     -53413.348    
     72000   3209.5412     -14224.73      -41289.158     -27777.102      2.0397933     -53441.593    
     72100   3229.985      -11662.851      998.21521     -8331.2435      2.0397933     -53419.465    
     72200   3215.244      -28678.395      1216.964      -2174.1234      2.0397933     -53410.823    
     72300   2933.0688     -25249.581     -11866.239     -35645.103      2.0397933     -53274.397    
     72400   2942.0344     -1535.827      -19812.993     -13135.142      2.0397933     -53302.243    
     72500   2967.732       5592.6351     -70.932817     -27339.038      2.0397933     -53309.843    
     72600   2808.2647     -131.91951     -21830.185     -22049.271      2.0397933     -53224.687    
     72700   3031.7278     -12732.367     -12604.332     -37611.774      2.0397933     -53337.019    
     72800   3099.3559     -12193.394     -22517.045     -24337.693      2.0397933     -53346.57     
     72900   3083.469       2758.7309     -460.3969      -16299.191      2.0397933     -53273.941    
     73000   3133.159       9965.5084      3579.3633     -42976.452      2.0397933     -53198.2      
     73100   3272.5388     -6576.2804      627.81346     -20251.061      2.0397933     -53180.014    
     73200   3087.8799      15528.995     -20407.587     -4842.8496      2.0397933     -53056.093    
     73300   3388.7605     -4923.8153     -3820.0471      5935.3205      2.0397933     -53268.762    
     73400   3228.2307     -24944.123     -13883.105     -13646.839      2.0397933     -53300.292    
     73500   3160.5607     -20188.935     -14640.003     -10503.525      2.0397933     -53387.661    
     73600   2803.3669     -25310.024     -29561.52      -31077.695      2.0397933     -53257.424    
     73700   3078.9756     -20003.913      324.96846     -33452.838      2.0397933     -53420.577    
     73800   3119.3203      2321.6715     -1145.7593     -20115.602      2.0397933     -53448.57     
     73900   2668.8287     -21946.101     -10307.608      14346.154      2.0397933     -53216.15     
     74000   3002.1078      2203.1041     -14689.93      -16539.671      2.0397933     -53401.024    
     74100   3061.1029     -9105.5226     -26475.959     -20195.197      2.0397933     -53395.052    
     74200   2691.9595     -21537.296     -19595.33      -36439.756      2.0397933     -53107.68     
     74300   3168.7142      612.55023     -3764.7883     -32691.659      2.0397933     -53199.467    
     74400   3366.6837     -9877.8618     -4740.6055     -12588.684      2.0397933     -53244.009    
     74500   3044.4562     -5058.8177      1301.4702     -36536.65       2.0397933     -53101.567    
     74600   2750.2949     -16052.79      -20267.64      -22244.868      2.0397933     -53001.601    
     74700   3001.3545      3419.4116     -5118.0456     -16198.004      2.0397933     -53186.677    
     74800   3176.4478     -15779.662     -4303.6744     -44713.167      2.0397933     -53349.188    
     74900   3195.5783     -254.95081      5100.3774     -13602.275      2.0397933     -53473.479    
     75000   3003.9912     -2778.0559     -27278.304     -26516.496      2.0397933     -53473.268    
     75100   3213.0602      7861.2028     -4705.7042      4417.0677      2.0397933     -53610.415    
     75200   2789.1761     -10920.401     -11629.024     -8951.9839      2.0397933     -53363.972    
     75300   2888.5909     -17688.131     -537.26047     -42564.813      2.0397933     -53393.51     
     75400   2974.6754     -13945.595      12247.869     -21937.924      2.0397933     -53387.98     
     75500   3306.0044      5036.2893      610.29862     -37502.069      2.0397933     -53488.167    
     75600   3014.2435     -19035.86      -27628.609     -18529.758      2.0397933     -53251.524    
     75700   3016.9703     -21130.497     -45719.964     -29531.441      2.0397933     -53202.581    
     75800   3160.6818      9004.6861     -20536.364     -15558.194      2.0397933     -53244.762    
     75900   3104.5726     -29925.356     -11275.634     -35352.726      2.0397933     -53229.099    
     76000   3176.5648     -19090.999      4361.4677     -25193.527      2.0397933     -53287.832    
     76100   3103.5584     -10808.42      -12501.525     -3629.1561      2.0397933     -53274.144    
     76200   3062.8122     -9754.5939     -16799.93      -42664.899      2.0397933     -53272.948    
     76300   3027.4416     -7710.7426     -24046.36      -10680.018      2.0397933     -53258.775    
     76400   3085.6006     -26463.174     -34262.458     -27660.161      2.0397933     -53300.501    
     76500   3353.2083     -19024.621     -17715.129     -2726.1487      2.0397933     -53497.167    
     76600   2955.1288     -26577.815     -17022.094     -37093.075      2.0397933     -53367.053    
     76700   3070.7299     -21974.95      -30683.441     -17838.01       2.0397933     -53507.902    
     76800   2917.1647     -12018.167     -9241.8458     -17110.079      2.0397933     -53487.284    
     76900   2746.8202     -6261.7754     -16107.419      21992.608      2.0397933     -53445.033    
     77000   2921.9699     -18919.85      -46237.378     -21054.58       2.0397933     -53555.232    
     77100   3056.0319     -27393.898     -16490.891     -12122.936      2.0397933     -53599.658    
     77200   2890.7356     -1763.7936     -21245.466     -9297.7056      2.0397933     -53417.861    
     77300   2973.1483     -12411.651     -6821.2007     -18427.39       2.0397933     -53280.837    
     77400   3209.6512     -24867.502     -18160.774      9363.7781      2.0397933     -53309.183    
     77500   3366.8354     -32895.498     -20843.273      33033.319      2.0397933     -53397.143    
     77600   3197.0994      6871.8139      5493.5334     -25927.304      2.0397933     -53360.77     
     77700   2967.1735      413.50921     -6718.4743     -14733.085      2.0397933     -53312.92     
     77800   2938.9072      11252.965     -16982.407     -21380.428      2.0397933     -53372.795    
     77900   2883.6111     -12322.99      -32449.448     -12171.318      2.0397933     -53392.593    
     78000   3044.8914     -10522.843     -3961.0812     -4496.9517      2.0397933     -53512.298    
     78100   2801.6368      4399.3883      463.25034     -10075.668      2.0397933     -53390.905    
     78200   3006.1756      8417.2305     -1676.0194      5738.7469      2.0397933     -53500.284    
     78300   3053.9371      2855.2427     -15425.243      793.82897      2.0397933     -53493.67     
     78400   3149.0178      11801.721      21970.794      3867.5759      2.0397933     -53414.063    
     78500   3204.9037     -3730.1752     -7246.6575     -15862.172      2.0397933     -53306.782    
     78600   3137.0884     -22262.16      -19997.478      4839.9752      2.0397933     -53226.523    
     78700   2968.2115     -13668.323     -29273.53       9858.379       2.0397933     -53145.053    
     78800   3144.7732     -17615.157     -18751.192     -19060.689      2.0397933     -53313.889    
     78900   3075.8708     -5736.2644     -174.01185     -13090.543      2.0397933     -53377.406    
     79000   3190.4774     -2459.3596     -2387.3561      4360.1991      2.0397933     -53555.355    
     79100   3157.4623     -3039.7848     -5704.4233     -28207.124      2.0397933     -53616.241    
     79200   3165.0511     -794.89627      1866.6519     -16155.018      2.0397933     -53665.646    
     79300   2798.9756     -17300.24      -973.23781     -2747.0088      2.0397933     -53493.63     
     79400   2853.7006     -17179.611     -28524.536     -16991.543      2.0397933     -53517.03     
     79500   2861.6118     -22087.146     -22692.022     -17280.156      2.0397933     -53471.118    
     79600   3053.2622     -13786.106     -27415.881     -18795.372      2.0397933     -53496.698    
     79700   3034.2308     -24882.97      -25338.57      -32437.993      2.0397933     -53407.029    
     79800   3456.5552     -2994.7848     -7741.1875     -19824.425      2.0397933     -53580.603    
     79900   3084.1753     -18464.743      7659.0972     -12966.38       2.0397933     -53379.965    
     80000   2860.8136     -4517.6005     -11334.31      -3314.6378      2.0397933     -53352.271    
     80100   2878.8402     -7596.6463      2681.7341      1252.2273      2.0397933     -53585.098    
     80200   2726.7395     -22506.746     -8184.483      -5653.7265      2.0397933     -53597.775    
     80300   2821.0706     -8198.2735      4680.3069     -5605.929       2.0397933     -53643.333    
     80400   2958.3139     -6208.3474     -3569.0161     -1394.5775      2.0397933     -53664.513    
     80500   3025.1257     -877.55726      20120.931      26099.357      2.0397933     -53622.318    
     80600   3034.6929      4280.4364      25896.719      27481.626      2.0397933     -53549.933    
     80700   3075.5695      8129.7888     -17784.636      4338.5438      2.0397933     -53532.27     
     80800   3064.668      -6572.6296      1363.0076     -3450.3529      2.0397933     -53531.574    
     80900   3164.6082     -770.28511      1636.7076     -32575.009      2.0397933     -53653.485    
     81000   2842.2514     -28039.157     -12202.278     -27385.675      2.0397933     -53589.296    
     81100   2653.4286     -15012.984      6358.1686     -23896.545      2.0397933     -53559.016    
     81200   2745.6446     -15637.892      2620.8792     -17283.102      2.0397933     -53622.206    
     81300   2763.5285     -1516.1937     -13655.25      -24357.302      2.0397933     -53583.72     
     81400   2890.7843     -16162.809     -18561.659     -3321.3448      2.0397933     -53513.1      
     81500   3257.4264     -7745.2134      6496.8855      3370.1163      2.0397933     -53598.844    
     81600   2942.6182     -10030.785      12314.425     -50.558217      2.0397933     -53409.032    
     81700   3036.223       12240.331     -14187.457     -4493.0871      2.0397933     -53470.271    
     81800   3166.3591     -24477.913     -6308.4757     -3453.3858      2.0397933     -53571.472    
     81900   2830.7412     -19753.873     -15923.088     -29747.103      2.0397933     -53445.521    
     82000   2953.8504     -10971.202     -19806.008     -39585.911      2.0397933     -53575.773    
     82100   2940.5044      3886.474      -15178.485     -25622.916      2.0397933     -53620.051    
     82200   3069.4011     -16669.022     -13513.277     -10291.182      2.0397933     -53737.511    
     82300   3017.6701      19291.541      22126.205      13835.313      2.0397933     -53773.072    
     82400   2702.6305      7723.0045     -16411.206     -7835.374       2.0397933     -53683.158    
     82500   2751.5352     -3202.1358     -15995.123     -4436.3792      2.0397933     -53761.908    
     82600   2714.1097     -17085.869     -12817.915     -4210.115       2.0397933     -53719.156    
     82700   2984.9161     -2650.0371     -13614.443     -3385.713       2.0397933     -53713.906    
     82800   2952.2285      3510.0142     -6955.8229     -4173.9893      2.0397933     -53547.49     
     82900   2934.2736     -13395.716     -24178.588     -910.33863      2.0397933     -53472.165    
     83000   3199.2113     -19331.933     -16060.395     -22657.503      2.0397933     -53581.949    
     83100   3198.991       9302.435      -18270.08      -10657.348      2.0397933     -53565.466    
     83200   3028.639      -14032.165      3990.3412     -16510.389      2.0397933     -53472.462    
     83300   2955.5781     -11708.252     -6727.0921     -24822.141      2.0397933     -53442.021    
     83400   2987.1091      8205.6182     -5701.9603     -14784.492      2.0397933     -53455.376    
     83500   2903.4749     -2522.1831     -8038.6333     -11224.385      2.0397933     -53380.777    
     83600   2987.3694     -4885.9797     -7093.3654     -5494.2293      2.0397933     -53362.035    
     83700   3205.0938      1519.7129      5999.6832      10856.678      2.0397933     -53381.521    
     83800   3210.8185      17754.832     -3643.1253     -18229.908      2.0397933     -53335.528    
     83900   2994.5662      7828.1354     -26877.081     -3090.7203      2.0397933     -53258.453    
     84000   2899.9437      26566.143      5461.1186      15573.068      2.0397933     -53321.726    
     84100   3025.0387     -7469.906       3563.7976      16422.861      2.0397933     -53515.023    
     84200   2909.2595     -18492.697     -8285.1596     -6541.9179      2.0397933     -53511.971    
     84300   2726.2537     -18795.735     -25844.2        2315.9571      2.0397933     -53411.559    
     84400   2980.1844      2833.3576     -8088.7564     -1431.6777      2.0397933     -53533.464    
     84500   2964.0254      10228.788     -374.87861     -2804.4936      2.0397933     -53511.087    
     84600   3010.8773      6142.4583     -11366.858     -8059.7787      2.0397933     -53506.36     
     84700   2962.1768      6888.1811     -12292.42      -2565.7788      2.0397933     -53425.501    
     84800   2869.6204     -1605.9881      3266.3013     -19685.488      2.0397933     -53307        
     84900   3198.5421     -19497.79      -34273.622     -3519.8662      2.0397933     -53369.396    
     85000   3302.9688     -13221.853     -25278.035     -25477.131      2.0397933     -53294.724    
     85100   3361.9193     -8478.4709      4231.1468     -14359.748      2.0397933     -53257.604    
     85200   3013.9878     -12226.044     -17419.365     -23894.283      2.0397933     -53082.551    
     85300   3152.4991      15276.54       18581.511      14755.877      2.0397933     -53216.328    
     85400   2861.6339     -5843.8431     -11989.135      10619.473      2.0397933     -53184.533    
     85500   2964.3892     -6434.5332     -13751.892     -20982.937      2.0397933     -53372.708    
     85600   2966.2227     -19924.809     -24402.696     -21967.838      2.0397933     -53425.878    
     85700   2778.7728     -15875.932     -2211.1119     -16678.372      2.0397933     -53315.106    
     85800   3003.257      -4288.4854     -9937.1619     -6210.0436      2.0397933     -53404.221    
     85900   3168.7641     -13467.039     -1422.761      -4920.1795      2.0397933     -53455.643    
     86000   3009.708      -19232.235     -13367.248     -8411.0841      2.0397933     -53349.076    
     86100   3041.6333     -36025.363     -3337.2966     -13974.283      2.0397933     -53359.108    
     86200   3179.5475     -39256.268     -20227.25      -12630.293      2.0397933     -53413.026    
     86300   3092.3844     -24698.312     -15639.422     -8906.6576      2.0397933     -53370.783    
     86400   2992.9403      4295.6158     -16651.005     -735.06634      2.0397933     -53380.022    
     86500   2905.5086     -9922.7329     -1087.9079     -27126.599      2.0397933     -53444.886    
     86600   2904.2354     -24084.424     -37683.948     -18429.383      2.0397933     -53525.089    
     86700   3002.966       2726.2621     -633.67486     -2409.6319      2.0397933     -53606.017    
     86800   2868.3458     -16581.166     -17619.173     -6837.6886      2.0397933     -53538.898    
     86900   2851.2514     -8519.0825     -7161.717      -10018.603      2.0397933     -53511.185    
     87000   2869.3524     -9747.7411     -4887.9073     -20286.662      2.0397933     -53444.216    
     87100   2968.2649      19687.836     -8634.1101     -8747.9973      2.0397933     -53328.517    
     87200   3040.1135     -4169.9546     -15098.931     -1809.6987      2.0397933     -53263.487    
     87300   3004.4279     -2007.5668     -3370.5158     -25333.854      2.0397933     -53200.252    
     87400   3055.3656     -20370.212     -27341.487     -28522.113      2.0397933     -53223.82     
     87500   3039.1084     -9079.629      -27020.156     -32542.664      2.0397933     -53214.446    
     87600   3013.3059     -12901.964     -16400.95      -13154.068      2.0397933     -53208.227    
     87700   3131.8671     -47012.776     -16244.727     -12967.6        2.0397933     -53326.023    
     87800   3049.134      -3883.4188     -7453.4553     -12969.781      2.0397933     -53404.669    
     87900   2858.095      -21008.072     -41099.946     -16367.138      2.0397933     -53426.607    
     88000   2844.1447     -123.15577     -17756.711     -16341.794      2.0397933     -53457.971    
     88100   3010.8284     -23094.384     -18133.455     -20105.813      2.0397933     -53545.108    
     88200   2888.2525     -28487.729     -15774.033     -28167.463      2.0397933     -53434.894    
     88300   2617.6124     -3967.5116     -37147.117     -7190.2952      2.0397933     -53225.511    
     88400   3028.9401     -15298.434     -9743.7475     -7658.4754      2.0397933     -53393.823    
     88500   3102.6065     -11497.368     -22820.509     -19705.17       2.0397933     -53406.205    
     88600   3306.7148     -26198.782     -20418.467     -14139.435      2.0397933     -53529.807    
     88700   2974.6224     -714.80917     -2544.2065     -8676.9914      2.0397933     -53382.698    
     88800   3176.7327      6524.4779     -7830.8195      4648.3874      2.0397933     -53519.622    
     88900   3035.7198     -23703.762     -13312.13       18165.407      2.0397933     -53468.352    
     89000   2958.771      -11630.975     -10078.739     -18969.523      2.0397933     -53428.479    
     89100   2941.7014     -4933.7743      3900.2729     -24849.827      2.0397933     -53406.383    
     89200   2931.8663      660.5946      -1305.2255     -35523.725      2.0397933     -53400.589    
     89300   3121.2453     -9873.4346     -23662.14      -24198.643      2.0397933     -53490.296    
     89400   3089.1942     -27487.081     -25435.013     -32285.689      2.0397933     -53435.774    
     89500   3229.0991     -13866.807     -19004.415     -4945.1807      2.0397933     -53476.145    
     89600   2880.8937     -669.204       -18878.488     -12345.88       2.0397933     -53286.875    
     89700   3042.1402     -12121.736     -12813.601     -9805.3553      2.0397933     -53393.671    
     89800   2965.8126      22090.003     -12953.128      18246.86       2.0397933     -53380.725    
     89900   3234.3231     -13746.315      11334.47      -16300.447      2.0397933     -53551.556    
     90000   2955.2679     -13157.355     -14850.683     -28327.691      2.0397933     -53410.658    
     90100   2878.0496     -687.23379     -13350.49      -16690.147      2.0397933     -53372.15     
     90200   3120.9685     -28918.293     -18955.285     -24962.104      2.0397933     -53509.895    
     90300   3068.3217     -15125.837     -10432.918     -2843.4881      2.0397933     -53464.626    
     90400   3036.4639     -15502.749      16633.535     -21617.818      2.0397933     -53415.636    
     90500   3195.1732      6151.3347      543.82854     -12403.367      2.0397933     -53467.795    
     90600   3136.7667      11904.201      15758.793     -8394.9137      2.0397933     -53385.572    
     90700   3051.8081     -13333.274     -14134.906      2013.6422      2.0397933     -53287.716    
     90800   2965.3841      1848.4213     -25492.67       4066.9417      2.0397933     -53190.729    
     90900   3227.4656     -4371.6662     -3003.4472     -14584.444      2.0397933     -53295.856    
     91000   3014.3101     -10037.288     -9795.8416     -13782.147      2.0397933     -53155.349    
     91100   3434.1936     -23364.446     -13584.259     -8991.3737      2.0397933     -53387.814    
     91200   3088.9975     -25719.701     -17139.505     -11998.268      2.0397933     -53304.211    
     91300   2873.6002     -31309.299     -11755.079     -29012.526      2.0397933     -53327.12     
     91400   3032.7134     -4637.7682     -5796.1525     -872.55628      2.0397933     -53509.301    
     91500   3106.8824     -13501.322     -10199.719     -5561.4311      2.0397933     -53627.341    
     91600   2993.7935     -23560.645     -13144.096     -12183.356      2.0397933     -53629.675    
     91700   2952.9159     -18122.473     -15127.225     -16396.839      2.0397933     -53636.119    
     91800   2777.4523      4074.2436      2446.9895     -10584.953      2.0397933     -53542.02     
     91900   2786.8519     -2937.9137     -4246.7199     -1370.3497      2.0397933     -53516.265    
     92000   2988.4955     -15772.935     -7248.6851     -5987.8317      2.0397933     -53516.886    
     92100   3072.3433      9582.5686      15870.828      7793.0986      2.0397933     -53431.603    
     92200   3110.638       20605.991      1068.0659      937.64333      2.0397933     -53386.365    
     92300   2995.1148     -5107.6567     -17483.436     -17086.244      2.0397933     -53303.711    
     92400   3265.306       7671.4272     -14594.712      5224.1134      2.0397933     -53453.348    
     92500   3361.9823     -9290.1186     -5886.8589     -2131.1527      2.0397933     -53547.832    
     92600   2858.8866     -41008.929     -11333.549     -29044.233      2.0397933     -53317.163    
     92700   2978.7834     -21282.148     -14716.737     -22581.005      2.0397933     -53418.21     
     92800   3251.4493     -2416.8897      14546.184     -7349.0587      2.0397933     -53589.89     
     92900   2891.8957     -26751.512     -9424.0388     -3302.3887      2.0397933     -53424.466    
     93000   2762.9417     -13538.567     -9746.505      -16904.18       2.0397933     -53374.849    
     93100   2920.6017     -25621.008     -20314.43      -9677.8317      2.0397933     -53434.536    
     93200   2969.486      -26771.484     -21900.266     -21548.345      2.0397933     -53304.071    
     93300   3464.9654     -75.155509     -7101.1583     -2227.0886      2.0397933     -53433.296    
     93400   3231.2778      786.58603     -8532.5757     -9714.5712      2.0397933     -53293.743    
     93500   3118.3276     -10052.759     -9007.9819     -15158.394      2.0397933     -53285.914    
     93600   3193.6007     -614.98915      1580.2628     -14391.911      2.0397933     -53426.448    
     93700   3112.0721     -17576.086      253.88086     -25037.881      2.0397933     -53506.468    
     93800   3135.0521     -8620.8619      11304.717     -14839.858      2.0397933     -53592.612    
     93900   3048.5491     -33809.147     -4093.3614     -24691.644      2.0397933     -53585.206    
     94000   2830.9671     -15529.376     -26092.153     -10527.936      2.0397933     -53478.089    
     94100   2942.9129      4761.5323      17049.73       1179.0634      2.0397933     -53526.702    
     94200   3141.5252      29497.691      511.49293      2091.2712      2.0397933     -53631.785    
     94300   2862.8253     -11892.907     -4387.3739     -30760.747      2.0397933     -53459.13     
     94400   3008.4704     -5254.1259     -13772.82       4794.4228      2.0397933     -53464.923    
     94500   3152.2076     -23237.343     -14321.864     -15642.08       2.0397933     -53435.939    
     94600   3260.0731     -20459.995     -7578.2115     -10748.053      2.0397933     -53397.481    
     94700   3075.6483     -17236.599     -18407.381     -7916.203       2.0397933     -53259.951    
     94800   2969.2679     -5998.7755      3025.6608      2156.8844      2.0397933     -53214.3      
     94900   3181.7817      6744.4506     -4395.2353      7160.9301      2.0397933     -53366.391    
     95000   3092.0238      6717.419       2902.6897     -13095.518      2.0397933     -53445.212    
     95100   2680.3675     -24535.923     -29941.313     -12051.758      2.0397933     -53364.842    
     95200   2907.8355     -18815.941     -26440.13      -27641.124      2.0397933     -53524.061    
     95300   2826.148      -1506.1984     -19737.154     -13635.649      2.0397933     -53459.669    
     95400   3130.8456     -14443.218     -19798.858     -24409.407      2.0397933     -53600.404    
     95500   2986.0953     -35879.94       4739.3058     -25077.588      2.0397933     -53501.05     
     95600   3075.8688     -8042.1025     -9527.4501     -8472.31        2.0397933     -53521.122    
     95700   2864.3075     -10772.841      9951.1034     -17839.501      2.0397933     -53361.492    
     95800   3085.7207     -1825.0665     -4905.8993     -4972.5668      2.0397933     -53384.966    
     95900   3301.1084     -1708.2685      14724.976      7946.2644      2.0397933     -53380.35     
     96000   3397.2327     -40315.236     -29907.885     -30391.403      2.0397933     -53377.651    
     96100   3259.65       -2988.9828     -1766.9252      5054.6366      2.0397933     -53329.482    
     96200   3312.0087      7804.8025     -10460.475     -14161.004      2.0397933     -53465.99     
     96300   2904.8609      2628.0136     -12858.582     -13399.092      2.0397933     -53382.721    
     96400   2978.3182     -15061.503     -12696.25       8872.2841      2.0397933     -53475.915    
     96500   3025.6737     -8789.7452     -16890.386      3987.2378      2.0397933     -53509.333    
     96600   3260.6885     -12709.39      -2562.1349     -674.15834      2.0397933     -53621.652    
     96700   3001.0259     -7927.8475     -29174.065      3867.2293      2.0397933     -53463.302    
     96800   3006.8425     -12499.854     -26111.049     -23583.317      2.0397933     -53460.647    
     96900   3087.0649      3166.828      -8114.1395     -12996.781      2.0397933     -53497.604    
     97000   2887.7029      25867.324      275.79921      12970.238      2.0397933     -53342.497    
     97100   3252.0709     -11757.381     -7650.0053     -5075.2707      2.0397933     -53445.451    
     97200   3192.0042     -14572.303      4514.0272     -3248.9028      2.0397933     -53309.051    
     97300   3495.0922      246.6171      -30039.162     -2240.0708      2.0397933     -53405.276    
     97400   3209.4908     -3388.0715     -15703.417     -11752.796      2.0397933     -53264.129    
     97500   3197.1673     -17987.64      -16328.013     -5576.4591      2.0397933     -53369.095    
     97600   2939.9407     -9905.3452     -38416.053     -9894.6281      2.0397933     -53379.107    
     97700   2924.194      -20942.346     -18840.908     -15221.547      2.0397933     -53416.719    
     97800   2837.8837      9093.3272     -14071.326     -19450.57       2.0397933     -53353.212    
     97900   2928.4115      4279.7606      11290.365     -5049.7428      2.0397933     -53375.104    
     98000   2882.8337     -2587.5335      5736.4675      2468.487       2.0397933     -53318.557    
     98100   3071.6488     -35086.651     -23321.537     -23238.504      2.0397933     -53361.489    
     98200   3048.4512     -1572.9833     -9247.2704     -375.49937      2.0397933     -53274.464    
     98300   3313.6754     -11490.379      4301.6372     -4273.5354      2.0397933     -53337.029    
     98400   3354.6547      14560.817     -43.687622      12265.408      2.0397933     -53309.216    
     98500   3385.7234      2506.6322     -2646.5671      4652.0615      2.0397933     -53386.174    
     98600   3054.1626     -11877.918     -14828.161     -24211.767      2.0397933     -53402.08     
     98700   2760.4219     -11436.02      -1299.1243     -6141.555       2.0397933     -53337.279    
     98800   2956.0885     -139.55751     -4242.6002     -1643.9204      2.0397933     -53457.106    
     98900   2960.9431     -9201.2271     -15873.707      12231.004      2.0397933     -53435.917    
     99000   2889.8367     -23343.361     -31410.523     -7761.7619      2.0397933     -53370.503    
     99100   3088.1932      16008.17       11025.433      2980.9224      2.0397933     -53442.672    
     99200   3110.6894     -19585.577     -14308.685     -13968.456      2.0397933     -53389.96     
     99300   3355.4153     -19183.661     -1418.282      -5093.8541      2.0397933     -53445.624    
     99400   3189.8106     -11962.875     -3079.1871     -1141.6276      2.0397933     -53309.974    
     99500   3315.6274     -12162.471     -7107.3218      712.40794      2.0397933     -53376.849    
     99600   3114.9718      23758.717     -7205.7237      3515.4887      2.0397933     -53351.546    
     99700   2752.8458     -17617.123     -33535.145     -5447.2208      2.0397933     -53293.357    
     99800   2964.3462     -17296.946     -19559.685     -19833.81       2.0397933     -53490.457    
     99900   2743.3307     -11021.218     -15423.424     -22534.515      2.0397933     -53395.974    
    100000   2863.1628     -14970.678     -19780.392     -18739.646      2.0397933     -53445.014    
    100100   3109.3217     -14309.71      -36238.028     -6193.2381      2.0397933     -53530.843    
    100200   3205.9281     -5854.4189     -8691.4245      5890.2034      2.0397933     -53536.146    
    100300   2953.9239     -5138.5487      12136.822     -15584.262      2.0397933     -53346.922    
    100400   3248.7013     -33962.297     -17680.282     -11268.806      2.0397933     -53428.601    
    100500   3305.9822      8105.6858     -13629.749      1743.4792      2.0397933     -53349.803    
    100600   3313.6579     -14862.274     -25225.428     -7944.5869      2.0397933     -53275.232    
    100700   3112.4714     -11681.436     -20018.909     -15317.75       2.0397933     -53163.786    
    100800   3284.4534     -7129.433       420.69654     -16193.053      2.0397933     -53333.244    
    100900   3081.2003     -12157.476     -32454.671     -16293.18       2.0397933     -53366.01     
    101000   2968.2029     -16858.148     -20974.906     -20920.313      2.0397933     -53397.049    
    101100   2924.5575     -6891.7893     -14246.379      2791.8497      2.0397933     -53411.048    
    101200   3006.6334     -13176.876     -12590.22      -40331.438      2.0397933     -53479.791    
    101300   2956.7741     -17789.081     -6455.3058     -4862.1512      2.0397933     -53476.893    
    101400   2959.6943      1493.5871     -2295.5154      69.039725      2.0397933     -53491.682    
    101500   3013.191      -18866.963     -4652.6805      4278.5641      2.0397933     -53540.819    
    101600   2934.3251     -12092.179     -4387.2468     -26177.362      2.0397933     -53505.84     
    101700   3021.8892     -18676.333     -17118.05      -15528.558      2.0397933     -53524.585    
    101800   2738.7859     -12361.069     -9480.792      -10910.01       2.0397933     -53279.34     
    101900   2955.6635     -6782.8531     -12825.563     -16620.256      2.0397933     -53291.111    
    102000   2967.9779     -10909.951     -3488.6493     -7426.6818      2.0397933     -53208.594    
    102100   3505.2853     -31684.679     -15508.294     -35398.197      2.0397933     -53451.928    
    102200   2996.4956     -26523.349     -28346.728     -15903.308      2.0397933     -53184.887    
    102300   2853.2049     -9293.2613     -9515.6202     -11739.93       2.0397933     -53149.578    
    102400   3064.2465      3225.6818     -7135.3277     -10176.692      2.0397933     -53324.252    
    102500   2925.8208     -10987.611     -19084.899     -17597.661      2.0397933     -53326.379    
    102600   2927.9872      3715.5135     -16251.249     -5156.9652      2.0397933     -53438.028    
    102700   2667.3382     -14409.227     -2184.8414     -13135.269      2.0397933     -53409.624    
    102800   2789.3786     -9985.5244     -13050.103     -23464.493      2.0397933     -53523.212    
    102900   2557.9175     -14015.935     -28149.977     -7376.6576      2.0397933     -53377.787    
    103000   3176.748      -7168.0009     -19581.182     -8748.3483      2.0397933     -53646.57     
    103100   2883.9164     -18591.119     -6149.3209     -17703.778      2.0397933     -53394.607    
    103200   2869.4181     -23984.859     -10722.817     -13980.759      2.0397933     -53324.491    
    103300   3219.4817     -16827.179     -20089.145     -8631.5823      2.0397933     -53501.164    
    103400   2956.8116     -4351.7844     -17008.299     -7319.4009      2.0397933     -53363.259    
    103500   3075.0007     -36635.955     -34353.236     -18171.397      2.0397933     -53434.261    
    103600   3010.2276     -28280.157     -12057.464     -9569.8311      2.0397933     -53376.216    
    103700   3237.8359      9344.426      -24989.293     -11999.312      2.0397933     -53450.435    
    103800   3200.1394      2289.44       -7005.1623      3032.1124      2.0397933     -53364.694    
    103900   3330.1922     -17043.011     -2313.9934     -11436.334      2.0397933     -53376.237    
    104000   3443.9783     -8150.9831     -17220.599     -2727.882       2.0397933     -53395.197    
    104100   3425.9065      9285.376       7672.985      -23177.041      2.0397933     -53407.659    
    104200   3081.3158      13679.969     -16083.459     -2342.1545      2.0397933     -53375.181    
    104300   3012.5477     -18214.834     -7772.4325     -13859.129      2.0397933     -53485.685    
    104400   2862.8113     -8816.0545     -18279.722     -15831.312      2.0397933     -53466.021    
    104500   3213.4079      14278.119     -4310.6864     -9304.3192      2.0397933     -53691.873    
    104600   3035.5366     -12198.145     -4489.6993     -22781.112      2.0397933     -53625.431    
    104700   2808.7153     -22649.712     -7159.5507     -10248.821      2.0397933     -53516.725    
    104800   2926.5939     -5092.8673     -8948.9076     -18064.852      2.0397933     -53560.908    
    104900   3064.6632      14846.655     -19422.919      923.09519      2.0397933     -53539.935    
    105000   2886.1932     -2177.281      -2601.468       1185.375       2.0397933     -53307.041    
    105100   3200.416      -22606.274     -2776.5234     -1670.97        2.0397933     -53407.024    
    105200   3011.2459     -8885.3087     -15045.281      2315.7903      2.0397933     -53299.558    
    105300   3313.2006     -27088.694     -15349.192     -31923.529      2.0397933     -53496.951    
    105400   3078.8573     -4820.4391     -6062.505      -13280.729      2.0397933     -53411.916    
    105500   2824.3785     -31247.47      -9243.0986     -15432.394      2.0397933     -53317.553    
    105600   3125.6947     -30827.766      2844.7338     -6480.3101      2.0397933     -53517.703    
    105700   3022.2795     -2323.4525     -15285.538     -8342.6712      2.0397933     -53500.823    
    105800   2784.5117     -17470.006     -26796.947     -34526.721      2.0397933     -53425.895    
    105900   2805.3663     -20419.844     -32054.278     -17159.569      2.0397933     -53550.63     
    106000   2827.1238     -22836.232     -30326.419     -10821.715      2.0397933     -53691.971    
    106100   2721.3228     -11552.481      2173.2727      5260.5315      2.0397933     -53704.685    
    106200   2788.5817     -4475.101      -10872.626     -15920.911      2.0397933     -53741.891    
    106300   2827.5599     -14399.04      -21074.463     -7639.9552      2.0397933     -53687.288    
    106400   2795.3422      8350.4688     -14462.765      6483.1904      2.0397933     -53556.754    
    106500   3271.3054     -3007.1063     -8372.6301     -10186.422      2.0397933     -53751.638    
    106600   3044.3989     -7865.7056     -25072.723      6284.3582      2.0397933     -53602.86     
    106700   2914.8513     -5323.5044     -28142.927      6218.6815      2.0397933     -53517.495    
    106800   2704.4175     -43089.074     -11120.472     -6880.2999      2.0397933     -53381.226    
    106900   3030.5363     -26724.116     -18259.635     -10465.911      2.0397933     -53497.742    
    107000   3113.058      -26962.638     -19774.757     -22888.231      2.0397933     -53452.563    
    107100   3319.3712      3333.3829      1299.3391     -14102.983      2.0397933     -53498.096    
    107200   3298.4298     -5674.656      -3016.5221     -3633.7299      2.0397933     -53493.438    
    107300   2929.2503     -31510.201     -25516.882     -21897.28       2.0397933     -53334.891    
    107400   2796.5076     -5685.8664      9413.3971     -11581.863      2.0397933     -53286.255    
    107500   2896.7452     -5870.2429     -20928.077     -19723.685      2.0397933     -53339.315    
    107600   3058.7994      12195.158     -23566.538     -23236.727      2.0397933     -53409.7      
    107700   3110.1362     -10609.543     -12154.786     -16311.762      2.0397933     -53430.158    
    107800   3030.1662     -11447.745     -19071.898     -20515.743      2.0397933     -53396.895    
    107900   3056.4542     -39956.402     -13748.217     -22645.363      2.0397933     -53443.175    
    108000   2952.2365      4780.3887     -38690.964     -25381.699      2.0397933     -53427.227    
    108100   2790.3492     -12590.089     -34243.121     -15527.306      2.0397933     -53410.332    
    108200   2890.311      -21630.502     -6476.5775     -14341.015      2.0397933     -53563.513    
    108300   2840.6595     -21887.81      -15589.717     -15532.718      2.0397933     -53623.691    
    108400   2740.3913     -33839.654      502.47394     -1157.1718      2.0397933     -53622.678    
    108500   2584.7493     -26924.705     -27229.505     -26239.992      2.0397933     -53536.451    
    108600   2700.1225     -8759.5563     -13172.753     -19658.573      2.0397933     -53507.101    
    108700   2933.1145     -25355.626     -19241.298     -22696.137      2.0397933     -53466.497    
    108800   3120.4741     -4574.1765     -13513.82      -10410.555      2.0397933     -53498.491    
    108900   3097.8559     -12009.651     -26262.046     -8592.2771      2.0397933     -53470.604    
    109000   3136.8881     -24174.654     -33988.558      1816.7134      2.0397933     -53503.063    
    109100   3062.4951     -7310.776      -3617.1324     -12828.923      2.0397933     -53494.869    
    109200   2920.1317     -26083.39      -19356.191     -19971.857      2.0397933     -53445.372    
    109300   2927.7802     -7435.631      -8540.1136     -9581.9857      2.0397933     -53457.851    
    109400   2993.1642     -13675.084     -9509.8045     -8591.378       2.0397933     -53462.798    
    109500   3069.7232     -23899.66      -32905.61      -9533.2198      2.0397933     -53464.041    
    109600   3125.269      -21774.571     -10416.697     -3219.0223      2.0397933     -53471.259    
    109700   3105.3067     -5808.1967     -14154.629     -35509.224      2.0397933     -53477.333    
    109800   2937.5465     -8871.7412      5566.2108     -26297.716      2.0397933     -53453.683    
    109900   2941.1363     -6376.3885     -3109.8242     -21550.579      2.0397933     -53557.106    
    110000   2644.5        -146.41141     -15190.664     -2204.487       2.0397933     -53490.227    
    110100   2646.2501     -23938.671     -4717.5553      1194.8681      2.0397933     -53530.829    
    110200   2779.9002      10931.256     -8563.4973     -1964.187       2.0397933     -53575.013    
    110300   2778.8809     -6862.2414     -14858.296     -14201.375      2.0397933     -53498.543    
    110400   2940.8289     -14417.343      3170.7469     -11118.679      2.0397933     -53486.976    
    110500   3168.1981      1575.0504     -20229.116     -14939.008      2.0397933     -53528.576    
    110600   3150.505      -12338.895     -12749.793     -2600.6468      2.0397933     -53492.686    
    110700   2819.7952     -8252.9965     -19205.817     -8129.8346      2.0397933     -53299.811    
    110800   3012.1349     -8097.8769      10988.811      27377.275      2.0397933     -53403.681    
    110900   3137.2441      959.0312      -3089.0965      3264.3869      2.0397933     -53474.044    
    111000   2853.6078     -5573.106       18083.74       7773.9624      2.0397933     -53349.435    
    111100   3009.0404      10873.293      7628.7423     -8258.3797      2.0397933     -53500.572    
    111200   2811.4338     -18314.178     -16188.461     -38257.011      2.0397933     -53507.612    
    111300   2678.1995      7897.8501      5723.2504     -4801.6638      2.0397933     -53524.537    
    111400   2747.9595     -10899.211     -8019.2499      15252.019      2.0397933     -53580.213    
    111500   3002.6945     -4734.4882     -11649.258      267.6361       2.0397933     -53687.91     
    111600   2745.5802     -35061.447     -6238.7833     -18091.604      2.0397933     -53481.736    
    111700   2976.028      -18648.763     -8561.7357     -27636.846      2.0397933     -53549.065    
    111800   3036.1381     -26560.972     -19148.726     -16689.192      2.0397933     -53546.734    
    111900   2822.2594      4353.8405     -7934.6081     -26682.083      2.0397933     -53400.661    
    112000   2919.9551     -9889.0954     -4792.1678     -2988.595       2.0397933     -53427.693    
    112100   3099.9227     -851.17492     -8863.0058     -861.87777      2.0397933     -53517.191    
    112200   3103.6621     -16447.076     -12285.08       2416.2073      2.0397933     -53530.957    
    112300   2980.0588     -169.59053      50.585008     -31147.204      2.0397933     -53492.098    
    112400   2991.4093     -24423.713      5298.6684     -19930.726      2.0397933     -53553.25     
    112500   2970.5144     -14158.013     -1588.7346     -26954.768      2.0397933     -53624.562    
    112600   2793.1851     -17543.012     -21265.833     -34457.351      2.0397933     -53612.375    
    112700   2667.3142     -7063.3361      12776.055     -19014.922      2.0397933     -53585.654    
    112800   2986.7317     -11192.777     -24624.024     -27084.336      2.0397933     -53741.307    
    112900   3000.294      -35394.606     -13785.329     -8204.4328      2.0397933     -53646.613    
    113000   3103.6113     -30728.44      -20066.742     -14626.514      2.0397933     -53550.321    
    113100   3270.9236     -35320.461     -27322.783     -34838.549      2.0397933     -53564.331    
    113200   3216.5291     -11824.247     -15349.451     -29475.294      2.0397933     -53512.01     
    113300   3224.806      -1301.4498      5579.523      -16786.88       2.0397933     -53548.744    
    113400   2875.5526     -1685.962       9138.1603     -29510.619      2.0397933     -53421.961    
    113500   2998.7292     -2775.2729     -1382.6923     -28643.581      2.0397933     -53523.279    
    113600   2835.9181     -4561.6424     -17042.072     -17911.865      2.0397933     -53456.268    
    113700   2745.6629     -5831.5103     -15368.614     -13592.909      2.0397933     -53409.067    
    113800   3183.3449      8996.5881      20735.943     -9041.7826      2.0397933     -53578.646    
    113900   3053.474      -13372.262     -24532.54      -41471.921      2.0397933     -53368.474    
    114000   3626.1044     -17831.583      1119.3789     -23030.381      2.0397933     -53569.719    
    114100   3250.4692     -8346.0682     -12115.119     -14620.143      2.0397933     -53346.068    
    114200   2865.6782      12697.872      10118.361     -5372.2083      2.0397933     -53166.442    
    114300   3041.2692     -24258.772     -22728.535     -33922.482      2.0397933     -53315.324    
    114400   3228.7745     -20049.421     -2131.7591     -26591.388      2.0397933     -53482.489    
    114500   2930.7709     -2429.2981     -7552.7949     -8959.6801      2.0397933     -53436.103    
    114600   2909.6182     -971.47939     -7257.2673     -9283.4399      2.0397933     -53559.372    
    114700   3029.0759     -14320.108      3278.8765     -15095.298      2.0397933     -53694.41     
    114800   2916.2452     -18114.618     -15590.368     -31264.266      2.0397933     -53641.451    
    114900   2830.928      -18977.935     -21675.897     -21310.211      2.0397933     -53563.547    
    115000   2746.1004     -24580.162     -8052.8271     -12402.252      2.0397933     -53455.109    
    115100   2941.287      -14116.067     -29702.946     -24149.007      2.0397933     -53476.632    
    115200   2951.3507     -15743.353     -12959.097     -33257.663      2.0397933     -53396.355    
    115300   3079.3656     -18793.639     -15238.003     -12647.208      2.0397933     -53395.874    
    115400   2955.833      -14485.98      -15313.096     -6386.4689      2.0397933     -53269.045    
    115500   3155.1614     -1148.5076     -18335.069     -16671.613      2.0397933     -53336.128    
    115600   3126.7083      3354.1855      2316.6043     -26082.907      2.0397933     -53308.528    
    115700   2800.9141     -17004.246     -10673.57      -22107.336      2.0397933     -53134.569    
    115800   3131.2292     -2949.0517     -13081.215     -8876.3159      2.0397933     -53309.321    
    115900   3080.9693     -7278.165       4538.995      -19291.739      2.0397933     -53269.035    
    116000   3539.1601     -13397.991      458.73243     -21594.49       2.0397933     -53544.584    
    116100   3027.6437     -2568.0459     -16289.646      862.72535      2.0397933     -53366.211    
    116200   2867.4974     -31913.474     -3449.9347     -9143.5983      2.0397933     -53387.278    
    116300   2881.2779     -11267.48      -15608.776     -8803.2029      2.0397933     -53453.996    
    116400   2913.4578     -5040.8179     -4746.1175     -3615.0985      2.0397933     -53494.351    
    116500   2609.964      -3595.3805     -10035.172     -24283.962      2.0397933     -53338.409    
    116600   2946.5604      2809.928       11848.256      5543.9711      2.0397933     -53471.095    
    116700   3078.7994      18002.54       13835.417      4622.7896      2.0397933     -53422.483    
    116800   3334.0847      12431.639      1476.7949      6358.3777      2.0397933     -53462.62     
    116900   2939.5336     -2109.5549     -14540.957      3520.419       2.0397933     -53212.353    
    117000   2875.7483      15046.75      -24712.673     -7272.6635      2.0397933     -53161.955    
    117100   3032.6001      3874.1806     -11761.144      2182.2842      2.0397933     -53247.986    
    117200   2864.0804     -8348.093      -16644.582     -12954.665      2.0397933     -53162.489    
    117300   3297.0756     -3097.7922     -722.77335     -33871.309      2.0397933     -53417.552    
    117400   3141.8951     -1335.3012      12186.33      -11068.08       2.0397933     -53369.591    
    117500   2869.2798      3260.9746     -15595.025     -16102.478      2.0397933     -53307.761    
    117600   2719.6183      2558.4948     -2550.4339     -12776.145      2.0397933     -53397.594    
    117700   2833.1071     -14878.683     -15045.134     -19591.846      2.0397933     -53564.002    
    117800   2737.5841     -63.526734     -16481.815     -12829.598      2.0397933     -53521.132    
    117900   2807.9077      5900.4948     -18306.531     -12553.28       2.0397933     -53516.965    
    118000   2782.4526      20295.013      611.5489      -13423.029      2.0397933     -53424.586    
    118100   3016.8577      9875.7768     -8288.161      -14811.513      2.0397933     -53476.284    
    118200   2944.6943     -338.28465     -15966.673     -9361.3193      2.0397933     -53377.721    
    118300   2950.8507     -8820.7017     -21956.38      -21638.682      2.0397933     -53325.575    
    118400   3087.4405     -11939.977     -18270.264     -8899.9951      2.0397933     -53379.556    
    118500   3021.9414     -9311.545      -16539.052     -29225.839      2.0397933     -53362.36     
    118600   3245.0543      24314.76      -7223.3753      536.18612      2.0397933     -53517.166    
    118700   3156.6621     -10415.366     -15974.599     -9787.2822      2.0397933     -53547.756    
    118800   2786.4732      5180.0356     -9685.8362     -14206.229      2.0397933     -53413.067    
    118900   2842.295      -2101.3908     -25344.868     -27652.776      2.0397933     -53461.952    
    119000   2861.1459     -18307.419     -5008.3525     -21698.062      2.0397933     -53456.639    
    119100   2958.8831      1398.7847     -5748.2199     -15535.846      2.0397933     -53478.307    
    119200   3054.4202     -23393.509     -25171.871     -29121.501      2.0397933     -53505.398    
    119300   2838.6642      478.14765     -9908.5156     -16349.042      2.0397933     -53371.457    
    119400   3183.7603      9143.7403      8967.6764     -5593.3247      2.0397933     -53557.634    
    119500   2877.2858      6698.0071     -22359.897     -2804.9739      2.0397933     -53405.258    
    119600   2970.8905      8626.756      -19902.509      4823.3334      2.0397933     -53493.417    
    119700   3033.2849     -8159.5573      14075.783      19401.23       2.0397933     -53602.317    
    119800   2925.2209     -15665.632     -8626.7403      6249.2817      2.0397933     -53655.161    
    119900   2570.1994      1868.8223     -9796.6128      11253.647      2.0397933     -53530.004    
    120000   2835.8123     -3037.6058     -8457.9988     -15774.346      2.0397933     -53678.046    
    120100   2600.7506     -11487.648     -18085.886     -13568.964      2.0397933     -53482.346    
    120200   2918.3809     -8422.0562     -11341.814     -19487.565      2.0397933     -53524.886    
    120300   2823.9414     -34836.835     -7927.7213     -25386.708      2.0397933     -53385.375    
    120400   2988.2495     -10759.725     -7089.3385     -24281.743      2.0397933     -53438.729    
    120500   2841.8213     -13683.351     -30687.841     -9812.9066      2.0397933     -53355.054    
    120600   2938.8376      3588.9628     -19321.499     -17945.299      2.0397933     -53398.63     
    120700   2981.2349     -14287.331     -28057.692     -26434.721      2.0397933     -53394.145    
    120800   3013.2257     -7349.3396      2005.0701     -11794.665      2.0397933     -53404.511    
    120900   2995.2206     -10422.353      6826.1765     -25215.963      2.0397933     -53421.576    
    121000   3157.9837     -24206.796     -12108.068     -16886.464      2.0397933     -53601.726    
    121100   2883.0365      6221.2497      16530.237     -15836.099      2.0397933     -53572.626    
    121200   2980.5065     -8895.4602     -12896.387     -18493.237      2.0397933     -53704.701    
    121300   2922.6318     -468.85418     -28813.429     -11743.866      2.0397933     -53725.232    
    121400   2624.4725     -7774.5575     -18102.315     -20280.398      2.0397933     -53582.434    
    121500   3055.3408      354.46207     -11833.036     -20477.188      2.0397933     -53776.073    
    121600   3044.8592     -29868.722     -34189.528     -18701.689      2.0397933     -53687.682    
    121700   3012.3932     -6323.7954     -7463.7078     -30123.162      2.0397933     -53556.658    
    121800   3064.2998     -23772.342     -13964.604     -12206.503      2.0397933     -53490.745    
    121900   2999.9364      18919.869     -7580.7622     -10684.982      2.0397933     -53413.694    
    122000   3186.3071     -23499.428     -12203.652     -10909.703      2.0397933     -53523.189    
    122100   3051.5034      4326.1925     -13903.172     -9775.6792      2.0397933     -53474.494    
    122200   3233.1621     -10258.772     -3693.3651     -13444.961      2.0397933     -53631.26     
    122300   3037.4314     -22365.122     -3802.9087     -11386.065      2.0397933     -53641.606    
    122400   2837.2966     -14966.51      -37351.235     -29683.335      2.0397933     -53605.89     
    122500   3066.6465      7894.7102     -11266.848     -17448.66       2.0397933     -53740.514    
    122600   3048.5471     -24340.384     -22840.128     -34863.516      2.0397933     -53711.829    
    122700   2982.9951     -13690.532     -37934.06      -19678.995      2.0397933     -53647.801    
    122800   2953.5647     -24622.603     -14972.268     -25586.792      2.0397933     -53585.612    
    122900   2850.6514     -19196.562     -14248.052     -6320.826       2.0397933     -53384.168    
    123000   3214.0472     -20257.254     -29115.808     -15979.494      2.0397933     -53429.159    
    123100   3275.8746      12343.128      10137.349     -13401.701      2.0397933     -53434.788    
    123200   3033.2186     -1016.0637     -475.50073     -10707.171      2.0397933     -53354.095    
    123300   3039.1946     -25922.977     -16456.428     -17899.15       2.0397933     -53429.356    
    123400   2743.7357      6871.1267      19136.271      7809.0192      2.0397933     -53313.497    
    123500   2731.3356     -21861.361     -7860.8059      8279.4792      2.0397933     -53330.422    
    123600   2862.9604      1225.3932     -6262.1258      1044.0227      2.0397933     -53395.952    
    123700   3063.9931     -3380.3187     -11842.577      9353.5608      2.0397933     -53472.909    
    123800   3267.325      -5341.6185      7228.6232     -1817.2249      2.0397933     -53512.382    
    123900   3172.5751     -17576.068      11511.853     -12576.935      2.0397933     -53378.777    
    124000   3154.0959     -4881.6687     -4682.5297     -7346.021       2.0397933     -53280.119    
    124100   3248.9246     -22233.295     -38312.05      -15865.361      2.0397933     -53292.121    
    124200   3371.7335     -3711.0595     -1297.4366     -2800.8536      2.0397933     -53392.3      
    124300   3042.0366      6863.1574     -20649.034     -25293.126      2.0397933     -53354.119    
    124400   2663.1916      11564.66      -21762.595     -19426.106      2.0397933     -53264.995    
    124500   2826.4397     -11701.532     -25828.211     -14205.43       2.0397933     -53384.353    
    124600   2829.2024     -10393.342     -33105.794     -28146.125      2.0397933     -53370.227    
    124700   3096.221       3923.9935      7930.3308      7123.7457      2.0397933     -53471.714    
    124800   2910.7112     -12412.545     -4404.1507     -5438.363       2.0397933     -53335.956    
    124900   2802.9638     -3190.3431     -9883.9591     -3904.266       2.0397933     -53268.753    
    125000   2971.9702     -5059.601      -29949.607     -25597.413      2.0397933     -53324.3      
    125100   3091.3598     -17533.663     -19701.05      -8119.7361      2.0397933     -53288.417    
    125200   3189.9638     -8552.6461     -7709.3115     -5073.7171      2.0397933     -53224.529    
    125300   3450.1105     -16028.111     -2069.099      -7084.2704      2.0397933     -53299.592    
    125400   3327.9403     -13549.273     -8169.8055     -10777.643      2.0397933     -53268.339    
    125500   2983.5473     -11617.479     -16554.756     -22286.376      2.0397933     -53196.86     
    125600   3253.2185     -17279.99      -3059.0822      8986.0608      2.0397933     -53453.636    
    125700   3252.4309     -1672.954      -3777.8978     -14277.361      2.0397933     -53540.725    
    125800   3042.1337      20087.419     -4149.8581      4756.5349      2.0397933     -53492.316    
    125900   3097.5705     -2904.5898     -19944.279     -2468.2245      2.0397933     -53568.403    
    126000   2976.5863      7986.5679     -23701.21      -16868.875      2.0397933     -53551.015    
    126100   2980.1465     -12095.059     -9646.9877     -10230.292      2.0397933     -53587.833    
    126200   2593.0309      11.665556      752.86283     -11395.058      2.0397933     -53398.904    
    126300   2917.9822      2653.0588      13447.261     -673.33702      2.0397933     -53590.955    
    126400   3126.3601      10848.556     -5883.5087      15796.241      2.0397933     -53728.813    
    126500   2872.0618      16452.169     -8003.7754      6767.7652      2.0397933     -53616.579    
    126600   2964.5594     -1076.1845     -2941.8124     -16366.186      2.0397933     -53681.031    
    126700   2682.2239     -16591.364     -21572.369     -4951.8267      2.0397933     -53528.07     
    126800   2858.4233     -15938.264     -17673.316      1410.177       2.0397933     -53572.421    
    126900   2981.0306     -8533.8466     -20757.912     -11985.073      2.0397933     -53537.482    
    127000   3048.009       16565.906      2750.014      -17362.43       2.0397933     -53486.23     
    127100   3088.8753     -22096.526      7032.819       5811.4546      2.0397933     -53474.067    
    127200   3188.4172     -11909.407      18129.558      4797.8626      2.0397933     -53532.196    
    127300   2885.8134     -3286.8209      2586.6954     -18247.574      2.0397933     -53404.333    
    127400   2871.8293      10710.915      13233.27       864.9764       2.0397933     -53466.946    
    127500   2820.7333     -10015.824     -6581.9611      341.92373      2.0397933     -53564.858    
    127600   2636.9319     -31886.174     -19420.623     -21548.054      2.0397933     -53554.375    
    127700   2843.3305      1622.7548     -9838.8829     -17981.353      2.0397933     -53685.053    
    127800   2646.5306      3248.9345     -1365.9179     -8082.2667      2.0397933     -53530.111    
    127900   2983.2463     -21090.912     -8179.1466     -22909.457      2.0397933     -53594.299    
    128000   2848.5529     -22273.136     -27333.787     -10257.057      2.0397933     -53428.395    
    128100   2881.324      -8828.2665     -25500.188      4079.504       2.0397933     -53405.444    
    128200   3120.0191     -4908.1288     -4728.9221      8768.648       2.0397933     -53514.248    
    128300   3011.1399      6135.2418     -7479.1436     -19847.735      2.0397933     -53454.968    
    128400   3018.3944     -2172.5297      5527.1784     -6946.9483      2.0397933     -53467.943    
    128500   2864.0267     -83.99586      -10802.961     -15195.88       2.0397933     -53388.494    
    128600   2822.4745      2209.9983     -7110.1573      3450.1972      2.0397933     -53339.31     
    128700   3117.5486     -4951.8542     -17052.962     -3104.6577      2.0397933     -53438.948    
    128800   3275.7632     -17694.428      1602.232       3621.931       2.0397933     -53468.573    
    128900   2892.7765     -11260.266      8146.581      -8354.5701      2.0397933     -53215.101    
    129000   3087.2796     -7220.9593     -4128.293      -38895.206      2.0397933     -53323.146    
    129100   2983.9503     -9832.9014     -29805.607     -30290.778      2.0397933     -53311.893    
    129200   3144.2462     -3097.6705     -30777.349     -16759.133      2.0397933     -53471.546    
    129300   2910.0632     -5217.3496     -11859.835     -22076.316      2.0397933     -53439.277    
    129400   3059.2604      682.22424     -18755.777     -12656.038      2.0397933     -53595.411    
    129500   2753.5635     -2548.8074     -14984.612     -18484.241      2.0397933     -53465.858    
    129600   2781.421      -16885.441     -10416.382     -13745.112      2.0397933     -53473.373    
    129700   2830.1154     -12813.554      3652.8815     -7905.3782      2.0397933     -53453.781    
    129800   2928.0406     -4405.5006     -111.74144     -19815.349      2.0397933     -53377.701    
    129900   3040.9132     -21263.186     -7889.289      -3279.801       2.0397933     -53297.016    
    130000   3376.9421      1690.3665      11470.917     -15777.009      2.0397933     -53424.91     
    130100   3356.7281      12443.558      6578.0616      19392.176      2.0397933     -53470.031    
    130200   2884.4651      6398.0302     -20165.577      9322.5054      2.0397933     -53294.36     
    130300   3065.1045     -7962.981      -2190.9683     -5133.9878      2.0397933     -53457.767    
    130400   3097.0629     -14677.937      5341.8957     -4941.0062      2.0397933     -53530.055    
    130500   3163.635      -17568.337     -407.65968     -23474.033      2.0397933     -53608.356    
    130600   3068.2125     -695.40405     -23093.125     -25294.687      2.0397933     -53597.554    
    130700   2867.1548     -15996.412     -26508.836     -36473.514      2.0397933     -53508.25     
    130800   2861.7741     -5934.7888     -11445.428     -38290.938      2.0397933     -53495.262    
    130900   3007.2066      2062.0372     -18428.774     -12718.163      2.0397933     -53537.476    
    131000   3189.1338     -5823.4627     -26019.759     -22630.275      2.0397933     -53525.389    
    131100   3114.5523     -5470.185      -14627.757     -14071.1        2.0397933     -53315.45     
    131200   3110.7319     -13621.624     -11628.518     -21255.741      2.0397933     -53219.891    
    131300   3157.0861      8772.944      -5654.7574     -32107.403      2.0397933     -53251.215    
    131400   3006.758      -14006.317     -19401.785     -40518.378      2.0397933     -53214.885    
    131500   2922.7878     -20062.353     -1534.7923     -43016.484      2.0397933     -53231.785    
    131600   3084.1479      6657.1115      1803.7314     -21309.455      2.0397933     -53391.891    
    131700   3065.2241      19042.629      2729.7305      6645.1354      2.0397933     -53441.749    
    131800   2890.8659      14030.715      198.93512     -19707.34       2.0397933     -53393.12     
    131900   3167.9139     -7884.8432     -14306.766     -25020.461      2.0397933     -53580.684    
    132000   2834.1746     -11428.842      1690.8989     -11848.212      2.0397933     -53413.284    
    132100   3249.075       6761.1559     -5305.2134      4682.7283      2.0397933     -53645.257    
    132200   3143.4855      7963.1641      1631.4223     -10687.048      2.0397933     -53603.5      
    132300   3010.1738     -1078.4426     -7164.5462     -5554.4235      2.0397933     -53537.278    
    132400   3046.0235     -5349.86       -5297.9375      2298.2492      2.0397933     -53549.283    
    132500   2771.4889      946.51033     -9771.1086     -21519.571      2.0397933     -53396.734    
    132600   3109.1438     -961.25466     -27992.964     -5380.6868      2.0397933     -53561.258    
    132700   2845.0902     -1816.8435     -21905.416     -6637.0453      2.0397933     -53364.181    
    132800   3118.1791     -4500.4561     -7296.4672      273.13429      2.0397933     -53408.58     
    132900   3247.1469     -4645.7089     -16424.334      4296.3659      2.0397933     -53372.158    
    133000   3186.5943     -20329.803     -21955.25      -6860.0763      2.0397933     -53322.342    
    133100   3178.3956      7151.1527      7225.8232      19242.491      2.0397933     -53386.934    
    133200   3197.7292     -16361.083     -26436.321     -25204.611      2.0397933     -53513.202    
    133300   2890.5125     -13163.543     -5069.5668     -31042.547      2.0397933     -53428.031    
    133400   3103.8767      2888.568      -12239.7       -14941.021      2.0397933     -53575.281    
    133500   3076.7744     -16334.747     -16341.781     -18171.705      2.0397933     -53585.172    
    133600   2937.7125      8692.6177     -11977.984     -1268.2751      2.0397933     -53508.549    
    133700   2694.304      -1094.457      -13386.646     -10389.43       2.0397933     -53330.977    
    133800   3126.1773     -15779.018     -30389.096     -3716.5476      2.0397933     -53489.585    
    133900   2927.4899     -17699.177      8947.8195     -5199.7925      2.0397933     -53326.902    
    134000   3101.6959     -31729.217     -5906.0445     -1098.3008      2.0397933     -53371.859    
    134100   3038.6484      11248.954     -18809.19      -951.58636      2.0397933     -53286.634    
    134200   3126.5125     -12452.791     -22659.023     -12662.207      2.0397933     -53327.69     
    134300   3224.9467     -8435.5564     -23755.469     -1547.4412      2.0397933     -53409.802    
    134400   3128.8576     -10453.042     -20560.173     -9263.9881      2.0397933     -53380.722    
    134500   3005.7253     -18889.95      -23933.886     -16901.501      2.0397933     -53332.095    
    134600   2921.6943     -26668.307     -24851.993     -14708.929      2.0397933     -53310.639    
    134700   3014.381      -9399.8524     -43166.841     -14308.935      2.0397933     -53367.393    
    134800   3235.0779     -8263.4507     -23961.066     -13071.792      2.0397933     -53494.617    
    134900   3128.1254      798.34408     -4791.8754     -14629.812      2.0397933     -53474.713    
    135000   2880.0243     -20241.808      8321.9814     -217.14361      2.0397933     -53431.3      
    135100   2869.5817      5452.4393     -7907.6013      3916.5435      2.0397933     -53555.992    
    135200   3005.9526      217.48241     -27035.37      -10897.182      2.0397933     -53707.495    
    135300   2813.9512     -43099.639     -17440.227     -26805.255      2.0397933     -53609.904    
    135400   2994.0335      8630.7921     -6593.8359     -20723.154      2.0397933     -53679.526    
    135500   2754.1672      7840.657      -5880.5061     -7226.2174      2.0397933     -53505.915    
    135600   2958.8954     -1838.3806     -16587.504     -5827.8042      2.0397933     -53566.356    
    135700   2870.1514     -23743.821     -17239.727     -26969.79       2.0397933     -53445.95     
    135800   2978.3315     -7073.0369     -6591.2952      8031.0032      2.0397933     -53441.627    
    135900   3201.5496     -2414.3181     -24222.466      2523.2633      2.0397933     -53546.097    
    136000   3085.6812     -20521.153     -24053.359     -11519.32       2.0397933     -53486.52     
    136100   2988.5461     -1109.5446     -19062.334     -18495.735      2.0397933     -53445.23     
    136200   2960.3527     -14764.732     -9358.3053     -19982.254      2.0397933     -53445.12     
    136300   2994.5085     -1597.6572     -16372.407     -2027.1345      2.0397933     -53472.084    
    136400   2746.9056     -17489.643     -54256.727     -31385.546      2.0397933     -53315.609    
    136500   3065.4238     -9675.3351     -19368.463     -11031.794      2.0397933     -53426.613    
    136600   3201.2933      12679.505     -888.94391      12992.806      2.0397933     -53425.005    
    136700   3247.3725      12254.823      7363.4744      3836.1942      2.0397933     -53399.404    
    136800   3075.3077     -5367.7194     -36237.502     -11436.082      2.0397933     -53340.913    
    136900   2815.9107     -9713.7297     -26145.53      -18258.042      2.0397933     -53307.867    
    137000   2974.2418     -25236.365      16455.492     -13821.242      2.0397933     -53526.444    
    137100   3024.2041     -48783         -37461.863     -37161.612      2.0397933     -53617.892    
    137200   2952.388      -6571.6493     -14254.081     -14342.316      2.0397933     -53589.919    
    137300   2843.8734     -16671.665     -19575.684     -27831.235      2.0397933     -53503.421    
    137400   2832.6685     -32250.605     -7294.09       -35196.172      2.0397933     -53431.842    
    137500   3004.7946      3880.5678      12431.933     -30252.61       2.0397933     -53470.337    
    137600   3075.4748     -10345.795     -9119.3127     -13848.551      2.0397933     -53476.096    
    137700   3107.6504     -10286.708     -6964.589      -22243.978      2.0397933     -53480.118    
    137800   3029.5707     -2092.4664     -42419.989     -8734.6741      2.0397933     -53450.704    
    137900   2904.5726     -48178.796     -24820.34      -20276.43       2.0397933     -53391.568    
    138000   2745.1144     -26637.039     -8450.5328     -23653.807      2.0397933     -53291.197    
    138100   2976.9505     -5844.7559     -481.68984     -3460.5885      2.0397933     -53403.92     
    138200   3157.8263     -10124.291     -16352.807     -14774.769      2.0397933     -53490.539    
    138300   2950.696      -9840.165      -15787.26      -20207.15       2.0397933     -53373.705    
    138400   2985.2014     -16441.481      510.4372      -22340.367      2.0397933     -53405.997    
    138500   3069.7557     -11442.631     -9915.0399     -26140.362      2.0397933     -53518.362    
    138600   2891.6124     -9548.6449     -8906.6566     -17755.38       2.0397933     -53553.793    
    138700   2811.1045     -7962.9491      5688.4623     -14671.182      2.0397933     -53605.74     
    138800   2782.4106     -28758.522     -9724.2395     -23038.628      2.0397933     -53626.457    
    138900   2782.3563     -12323.388      5308.5857     -10649.211      2.0397933     -53612.43     
    139000   2599.2127     -5451.8166     -1068.2567     -16095.298      2.0397933     -53441.922    
    139100   2749.657      -17865.651     -6101.745      -16224.067      2.0397933     -53404.384    
    139200   3041.082       19619.635     -10682.913     -565.14318      2.0397933     -53462.021    
    139300   2978.5581      1087.527      -16214.553     -22310.724      2.0397933     -53398.216    
    139400   3021.4605     -10715.938     -13562.333     -26415.237      2.0397933     -53417.08     
    139500   3101.9668     -18107.519     -17050.48      -22349.837      2.0397933     -53473.421    
    139600   3015.745      -18810.479     -10146.239     -16112.549      2.0397933     -53459.222    
    139700   2836.1372     -7865.4769     -18878.503     -7467.6659      2.0397933     -53392.359    
    139800   2936.758      -13799.355     -10275.132     -2036.8068      2.0397933     -53472.869    
    139900   2943.1287     -19778.249     -31761.606     -32993.439      2.0397933     -53470.111    
    140000   3239.752      -8232.3597     -11470.962     -13918.233      2.0397933     -53584.788    
    140100   2955.5492     -24882.447     -25736.854     -44383.478      2.0397933     -53367.898    
    140200   2911.3476     -17799.405     -25927.57      -14144.461      2.0397933     -53277.521    
    140300   3263.7874     -28855.723     -10590.841     -6999.0651      2.0397933     -53407.168    
    140400   3155.0338     -12022.608     -28561.282      7581.4761      2.0397933     -53319.429    
    140500   2991.9431     -24886.021     -20741.91      -24967.001      2.0397933     -53268.964    
    140600   3019.3838      12402.357     -18405.485      20761.789      2.0397933     -53388.558    
    140700   3000.0534      6189.9375     -13006.013     -16043.54       2.0397933     -53525.926    
    140800   3026.0928     -4247.1155      6268.2518     -22193.468      2.0397933     -53614.822    
    140900   3060.225       6924.0088     -15189.141     -6933.8049      2.0397933     -53642.186    
    141000   2801.9001      6671.3877     -1532.6274     -617.65935      2.0397933     -53490.638    
    141100   2747.3013     -20659.875     -7271.0895     -2596.102       2.0397933     -53457.708    
    141200   3104.4684     -5154.0092     -23863.717      880.09812      2.0397933     -53639.564    
    141300   2781.4778     -8875.6174     -2606.0012      1853.0563      2.0397933     -53447.824    
    141400   3043.7042      11358.343     -10188.484     -5402.9472      2.0397933     -53551.633    
    141500   2998.1845      8822.2772     -2645.3217      1725.1907      2.0397933     -53422.202    
    141600   3004.6331     -9745.4591     -2203.9135      6410.361       2.0397933     -53332.088    
    141700   3188.1225     -16401.021     -10681.921     -12347.166      2.0397933     -53374.188    
    141800   3230.4983     -25729.031     -11509.866     -18686.51       2.0397933     -53390.417    
    141900   3054.7773     -14158.298     -15840.802     -25490.229      2.0397933     -53350.503    
    142000   2950.9897     -15932.175     -14940.275     -3617.2495      2.0397933     -53420.686    
    142100   3114.9203      5966.026      -3996.4563      3284.7774      2.0397933     -53673.177    
    142200   2987.6659      2395.2002      6094.2837     -5995.8754      2.0397933     -53684.755    
    142300   2893.9807     -8434.6373     -4595.0828     -8517.3729      2.0397933     -53665.055    
    142400   2690.9796     -27733.998     -35961.368     -25846.032      2.0397933     -53544.234    
    142500   2927.8095     -4693.6913     -17829.74      -11635.772      2.0397933     -53607.237    
    142600   2848.0142     -2793.1865     -16640.451     -11766.991      2.0397933     -53465.918    
    142700   2848.098      -822.88877     -10322.921     -4964.1427      2.0397933     -53394.732    
    142800   3053.9588     -24506.864      4196.4267     -8816.6271      2.0397933     -53458.57     
    142900   3014.9378      2040.7008     -14841.509     -927.08694      2.0397933     -53407.49     
    143000   3246.2473      5962.4606     -928.29655     -20178.756      2.0397933     -53522.643    
    143100   3080.0671     -162.50962     -7777.3927     -11533.038      2.0397933     -53468.552    
    143200   2826.2585     -12995.77       12747.079     -5466.5893      2.0397933     -53466.842    
    143300   3062.5168     -435.37107      7736.8796     -5704.2868      2.0397933     -53785.732    
    143400   2867.8858     -2972.0442     -13566.235     -25738.454      2.0397933     -53762.786    
    143500   2722.0128     -8862.6109     -17972.576     -10489.883      2.0397933     -53707.431    
    143600   2766.7596     -1268.5433     -3066.4165      481.55381      2.0397933     -53693.743    
    143700   2898.2939     -18043.999     -19350.883     -20491.345      2.0397933     -53681.914    
    143800   3105.2607     -10453.435     -4560.6225     -18526.021      2.0397933     -53689.243    
    143900   3115.7918     -5310.5164     -1379.9872     -11260.182      2.0397933     -53628.564    
    144000   3074.9704      126.65949     -14421.216     -26445.665      2.0397933     -53592.23     
    144100   2954.3376     -7904.0341     -26300.251     -15191.077      2.0397933     -53551.017    
    144200   3152.2989      447.02939     -6970.558      -26843.006      2.0397933     -53693.514    
    144300   2854.7502      1530.1939     -11238.781     -15175.059      2.0397933     -53551.839    
    144400   3015.9921     -17916.319     -13467.626     -25322.034      2.0397933     -53669.064    
    144500   2707.6312     -2417.4135     -6192.0498     -16690.263      2.0397933     -53551.027    
    144600   2839.1015     -4078.583      -19767.562     -22317.67       2.0397933     -53679.119    
    144700   2567.6146     -10997.161     -23021.215     -23476.189      2.0397933     -53533.103    
    144800   2876.6099     -1809.0531      25734.637      7290.9141      2.0397933     -53643.642    
    144900   3179.7635      9630.1343     -7336.0002     -21572.125      2.0397933     -53706.212    
    145000   2818.0909     -6780.3142     -14262.042     -21247.513      2.0397933     -53415.794    
    145100   3228.7078     -15901.362     -20869.859      850.06691      2.0397933     -53585.077    
    145200   3294.7263     -16038.058      26052.093     -15212.565      2.0397933     -53606.666    
    145300   3030.5029     -5127.9747     -11676.124      548.22236      2.0397933     -53485.906    
    145400   3085.5721     -15053.862     -4281.8486     -12950.345      2.0397933     -53585.132    
    145500   2943.4793      803.29045      5070.316       13221.509      2.0397933     -53617.776    
    145600   2873.4871     -16903.643     -7136.1997     -3513.2391      2.0397933     -53719.87     
    145700   2799.7078     -24687.247     -14879.152     -9451.9731      2.0397933     -53764.503    
    145800   2714.0654     -17056.747     -29630.69      -27295.517      2.0397933     -53714.461    
    145900   2879.2348     -18636.478     -20870.323     -42534.345      2.0397933     -53751.279    
    146000   2840.6651     -9990.8428     -455.27314      1994.7648      2.0397933     -53648.608    
    146100   2859.1918      9561.1612     -15731.307      1327.8129      2.0397933     -53586.279    
    146200   3266.4397      5929.9961      4311.7303      5571.5081      2.0397933     -53767.603    
    146300   3027.8008     -12989.137     -8718.7536     -10301.253      2.0397933     -53612.31     
    146400   3326.15        6632.878      -4441.7412      11137.855      2.0397933     -53741.411    
    146500   3200.6816      9350.1187      3666.5541      12173.826      2.0397933     -53659.562    
    146600   3191.4841     -12030.93      -4417.3937     -16513.379      2.0397933     -53695.256    
    146700   3051.4356     -7330.847       781.79518      4490.1369      2.0397933     -53742.829    
    146800   2890.6109      906.69846      6994.7817      8191.9305      2.0397933     -53771.454    
    146900   2653.4358     -7187.8636     -8045.8241     -12679.598      2.0397933     -53672.229    
    147000   2662.1895     -15775.68      -9540.6249     -13645.15       2.0397933     -53638.419    
    147100   2916.7262     -6150.1003      4957.2955     -10989.409      2.0397933     -53685.394    
    147200   3013.0792     -10806.641     -21311.904      2078.6664      2.0397933     -53658.891    
    147300   2715.2724     -16823.414     -27453.883     -21900.55       2.0397933     -53451.472    
    147400   3096.5563     -31202.517     -25301.35      -29371.935      2.0397933     -53634.447    
    147500   3118.6347     -20440.582     -3335.2401     -11506.404      2.0397933     -53626.045    
    147600   3021.8361     -20288.71      -13302.267     -27980.069      2.0397933     -53565.524    
    147700   2866.384      -26612.151     -14336.435     -9304.5465      2.0397933     -53483.342    
    147800   2962.8598      3716.2095     -14274.361      4084.3444      2.0397933     -53509.048    
    147900   3132.7385     -8287.7149     -13983.58      -4663.9529      2.0397933     -53519.616    
    148000   3209.4269      1995.5991     -10515.703     -4394.5866      2.0397933     -53427.462    
    148100   3474.9907     -12108.31       5803.9759     -11204.107      2.0397933     -53473.853    
    148200   3211.4573     -1536.4094      5499.2421     -18194.894      2.0397933     -53353.547    
    148300   3215.5755     -6759.1931     -12291.149     -18946.978      2.0397933     -53462.723    
    148400   3174.2097     -22932.574     -16567.616     -38455.596      2.0397933     -53551.434    
    148500   3053.7251     -14482.033     -25222.386     -25683.252      2.0397933     -53551.877    
    148600   3057.1596     -8588.8974     -8695.0015     -15956.761      2.0397933     -53580        
    148700   2916.6504     -5431.5396     -16168.958     -10173.971      2.0397933     -53532.754    
    148800   2987.287      -10559.284     -8410.5024      1975.1565      2.0397933     -53586.589    
    148900   2674.6327     -8100.2973      5242.0424     -3030.6578      2.0397933     -53404.819    
    149000   2983.575      -12939.666     -7273.7965     -23816.498      2.0397933     -53546.973    
    149100   2982.1128     -2753.236       8515.6758     -17891.305      2.0397933     -53486.239    
    149200   3465.1735      481.6975      -5547.2957      1874.0085      2.0397933     -53658.798    
    149300   3209.0976     -38652.03      -24342.156     -4181.7159      2.0397933     -53467.17     
    149400   2937.6        -10564.214      924.90789     -17262.415      2.0397933     -53324.473    
    149500   2882.8168      78.937648      1140.7591     -3076.9557      2.0397933     -53368.455    
    149600   3053.1171     -10498.139      4744.7642      13668.124      2.0397933     -53593.642    
    149700   2760.4152     -11099.706     -8356.6972     -2526.9017      2.0397933     -53544.914    
    149800   3021.6281     -8051.6196      9039.7705     -4216.3644      2.0397933     -53723.838    
    149900   3049.4114      12096.432     -16616.831     -303.81697      2.0397933     -53740.6      
    150000   2861.3093      7626.3332      1326.0688      12603.46       2.0397933     -53599.815    
    150100   2623.0795     -985.83931     -16375.783     -17062.548      2.0397933     -53399.201    
    150200   3114.0269     -7696.9653      8762.4458     -8717.4392      2.0397933     -53567.491    
    150300   2976.0455     -27714.911     -21054.902      2556.7368      2.0397933     -53435.914    
    150400   3060.6329     -22163.458     -16132.531     -18428.474      2.0397933     -53458.469    
    150500   3089.5929     -4673.7353     -8369.2161     -6346.4717      2.0397933     -53464.474    
    150600   3025.1299     -8748.1094     -7404.0506      5267.9532      2.0397933     -53439.191    
    150700   2956.815      -7209.1424     -10911.514     -13444.729      2.0397933     -53444.396    
    150800   2858.3286     -10322.643     -32396.718     -20381.728      2.0397933     -53446.789    
    150900   2929.7343      5094.8653     -20620.309     -26931.659      2.0397933     -53551.084    
    151000   2993.8001     -11048.746     -3452.6179      6709.9671      2.0397933     -53676.186    
    151100   2690.8752     -30526.979     -11133.04      -33772.368      2.0397933     -53645.396    
    151200   2714.596      -2086.7931     -10195.893     -25212.835      2.0397933     -53736.366    
    151300   2896.1502      8016.5759      7502.8126     -7654.2272      2.0397933     -53850.735    
    151400   2841.9504     -24860.189     -13620.736     -15054.878      2.0397933     -53789.947    
    151500   2879.5445     -16874.761     -18170.823     -15924.754      2.0397933     -53739.52     
    151600   2985.782      -18093.29      -23435.977     -6170.1229      2.0397933     -53744.435    
    151700   3118.9684      9345.33       -1750.7127     -24499.272      2.0397933     -53798.875    
    151800   2987.6609     -2752.6339     -4517.226      -15199.047      2.0397933     -53710.52     
    151900   2805.1655      1809.0103     -7946.1408     -5200.6797      2.0397933     -53572.434    
    152000   3246.1361     -841.98044      11081.344     -7795.2553      2.0397933     -53753.208    
    152100   2998.2665     -2851.7791      9597.6991      25203.326      2.0397933     -53588.396    
    152200   3049.7624     -6249.4402     -8200.8371     -4737.7446      2.0397933     -53619.487    
    152300   2859.3662     -15297.499     -23222.818      6294.8542      2.0397933     -53531.707    
    152400   3186.8245     -12537.945     -10347.324      8987.0839      2.0397933     -53736.973    
    152500   2767.9888      2227.8946      19286.944     -16115.579      2.0397933     -53555.72     
    152600   2981.785      -7190.5419     -26450         -3882.1633      2.0397933     -53703.966    
    152700   3103.5076     -6499.4964     -12943.074      14351.446      2.0397933     -53778.572    
    152800   2924.397      -17981.509      12719.727      17695.465      2.0397933     -53686.68     
    152900   2738.9421      6058.3656     -5681.163      -13648.584      2.0397933     -53558.501    
    153000   3076.263       6199.1915     -7853.0032     -19092.464      2.0397933     -53652.111    
    153100   2986.4442     -13779.287     -4515.8779     -10749.799      2.0397933     -53493.409    
    153200   3021.4404     -14675.149     -8768.2827     -17068.488      2.0397933     -53414.145    
    153300   3031.6287      5058.8414     -4028.7392     -6938.4314      2.0397933     -53352.057    
    153400   2976.5769     -5109.3767     -20221.62      -19459.091      2.0397933     -53300.739    
    153500   3133.3945     -6167.9724     -4861.4566      17523.128      2.0397933     -53386.683    
    153600   3319.784      -32235.36      -15696.756     -14566.867      2.0397933     -53512.874    
    153700   3072.7848     -3033.3868     -5036.0106      5780.9871      2.0397933     -53442.476    
    153800   2868.3877     -4312.4892     -4281.367       5209.9795      2.0397933     -53445.403    
    153900   3007.8268     -4304.1654     -1227.5581     -4439.8541      2.0397933     -53620.57     
    154000   2750.4084      180.36268      8718.4079      4064.2826      2.0397933     -53514.512    
    154100   2965.7764      3132.8991     -11477.958     -3784.6758      2.0397933     -53638.849    
    154200   3152.7651      2273.4551      1025.7682     -2394.6715      2.0397933     -53722.434    
    154300   3350.1666      3025.8034      16567.3       -5678.0769      2.0397933     -53825.921    
    154400   2902.8249     -2760.0355     -29577.303     -6274.3509      2.0397933     -53597.101    
    154500   2971.7161     -28982.5       -6619.6687     -25405.244      2.0397933     -53638.079    
    154600   2943.2972      2846.5176      14769.616      9819.9652      2.0397933     -53625.91     
    154700   2931.2486      3160.1486     -3186.1681     -5548.3437      2.0397933     -53599.372    
    154800   3100.6052     -9134.3109     -15922.744     -9771.8759      2.0397933     -53610.716    
    154900   3029.8224      14920.024      8702.6649     -2925.9169      2.0397933     -53454.851    
    155000   3333.3141     -20797.153     -8428.4958      3739.6253      2.0397933     -53535.485    
    155100   2990.8941     -948.92002     -6848.6804      6719.8711      2.0397933     -53334.54     
    155200   3280.4981      9978.8996     -13532.675     -20379.422      2.0397933     -53523.859    
    155300   2889.0357     -16874.808     -6080.8579      11754.677      2.0397933     -53365.595    
    155400   2981.5035     -8777.7341      1249.122      -16457.521      2.0397933     -53503.935    
    155500   2672.6399     -27041.307     -11850.133     -16193.067      2.0397933     -53485.579    
    155600   2597.8596     -19753.622     -6796.4395     -19551.736      2.0397933     -53539.159    
    155700   2771.6582      1313.1584      3385.1104     -12735.485      2.0397933     -53640.051    
    155800   2730.9805     -6865.401      -5185.6966     -7692.942       2.0397933     -53581.054    
    155900   2816.5042     -20237.7       -10229.187     -5615.6014      2.0397933     -53580.527    
    156000   2865.7275      1253.9349      11399.32      -18857.626      2.0397933     -53554.26     
    156100   2788.1906      2636.7233     -7574.0953      21206.326      2.0397933     -53457.856    
    156200   3167.5676      5006.7377     -6477.9155      10471.815      2.0397933     -53625.737    
    156300   3056.9653     -9234.5049     -8446.9931      10132.148      2.0397933     -53556.849    
    156400   2867.6578     -833.815       -15880.857      2311.1173      2.0397933     -53447.959    
    156500   3115.0743     -10763.158     -9929.3569     -15563.081      2.0397933     -53578.547    
    156600   3244.4786      3008.5529     -3743.7905     -8663.8561      2.0397933     -53638.431    
    156700   3056.191      -13222.582     -14329.501     -3054.3701      2.0397933     -53536.515    
    156800   2587.8416     -11216.218     -22738.645     -17353.354      2.0397933     -53262.037    
    156900   3073.4812     -10419.565     -12614.636      2489.0295      2.0397933     -53486.678    
    157000   3012.0279      2219.2661      2291.1103      96.604549      2.0397933     -53416.131    
    157100   2984.3023     -21669.974     -21985         -2570.7658      2.0397933     -53377.696    
    157200   2928.5242     -27752.899     -16646.749     -27398.164      2.0397933     -53309.668    
    157300   2890.8704     -13484.264     -10145.122     -12661.757      2.0397933     -53240.328    
    157400   3255.9445     -9406.5101     -18552.811     -24845.772      2.0397933     -53377.621    
    157500   2895.6275     -5861.3159     -1421.3335      2749.6995      2.0397933     -53095.335    
    157600   3266.4572     -4232.1169     -9954.9119     -13283.047      2.0397933     -53169.197    
    157700   3486.2629     -25297.734     -17579.036     -12418.08       2.0397933     -53228.6      
    157800   3300.8393     -39466.766     -29558.631      7430.1379      2.0397933     -53161.603    
    157900   3074.6007      8662.8133     -34211.692     -23395.208      2.0397933     -53136.452    
    158000   3229.0158     -13953.848     -27276.574     -36747.591      2.0397933     -53337.986    
    158100   3108.1492     -30689.827     -34368.973     -40223.708      2.0397933     -53334.806    
    158200   3077.321      -10746.325     -6132.8623     -15178.05       2.0397933     -53336.04     
    158300   3241.3676     -1129.3607     -4197.3464     -8005.0776      2.0397933     -53436.901    
    158400   2947.3153     -21488.44      -22616.373     -16562.301      2.0397933     -53316.388    
    158500   2591.1667     -8795.4001     -6924.4945     -8216.832       2.0397933     -53168.103    
    158600   2960.0986     -1762.6336     -14344.671     -26856.079      2.0397933     -53423.594    
    158700   3064.695      -7820.3419      2054.5572     -13713.575      2.0397933     -53544.088    
    158800   2897.2707     -15294.3       -15486.294     -19058.226      2.0397933     -53525.127    
    158900   2888.745      -4626.6815     -14353.644     -6181.3198      2.0397933     -53577.549    
    159000   2942.9186     -9253.4343     -5401.4757     -21376.289      2.0397933     -53637.571    
    159100   2768.5921     -12373.744      3414.9321     -3153.6433      2.0397933     -53549.305    
    159200   2668.0746     -18915.703      5004.0072     -11068.153      2.0397933     -53450.674    
    159300   3002.3709     -25230.588     -399.98504     -5347.7442      2.0397933     -53527.133    
    159400   3151.6009     -8106.8313      17874.194      13818.388      2.0397933     -53495.663    
    159500   3003.0256     -2394.3132      23267.005     -10092.865      2.0397933     -53333.507    
    159600   3156.8858      3126.5597     -11281.59      -17667.123      2.0397933     -53357.729    
    159700   3133.6652     -203.78461     -31920.698     -26594.359      2.0397933     -53321.645    
    159800   3134.8596      3562.1413     -9206.9692     -15986.131      2.0397933     -53353.695    
    159900   2941.5685      2917.4156     -3113.9587     -22465.145      2.0397933     -53343.159    
    160000   3039.6146     -8129.3663     -20033.194     -14392.859      2.0397933     -53512.944    
    160100   2843.9969     -15710.296     -12314.477     -24463.945      2.0397933     -53475.356    
    160200   3084.9254     -10374.108     -1623.0425     -32975.301      2.0397933     -53619.151    
    160300   2837.0649     -11320.473      3724.0969     -25838.332      2.0397933     -53471.148    
    160400   2702.1665      8734.6602     -2266.3054     -10795.582      2.0397933     -53394.485    
    160500   2936.1613     -25463.586      4344.4245     -20747.35       2.0397933     -53528.463    
    160600   2877.2016      1411.1812     -9625.0705     -30983.386      2.0397933     -53512.823    
    160700   2904.1381     -14767.615     -14602.227     -20168.861      2.0397933     -53524.201    
    160800   2920.2453     -8694.8632      5314.3        -16849.714      2.0397933     -53485.484    
    160900   2912.9512      12487.306      252.15645     -29071.85       2.0397933     -53362.608    
    161000   3183.1009     -4191.002      -11674.227     -27159.7        2.0397933     -53379.785    
    161100   3275.6503     -22702.537     -23788.735     -22404.677      2.0397933     -53403.84     
    161200   3095.5813     -19703.679     -14375.601     -25685.324      2.0397933     -53342.388    
    161300   2899.8352      4218.8934     -23283.643     -13041.188      2.0397933     -53313.601    
    161400   2877.4826     -31436.896      620.38338     -18115.375      2.0397933     -53389.98     
    161500   3052.683      -5697.0646     -26669.79      -21569.904      2.0397933     -53543.283    
    161600   2923.4077     -4248.984       1227.1015     -23462.489      2.0397933     -53501.638    
    161700   3130.3659     -16458.287     -12261.099     -27216.47       2.0397933     -53610.887    
    161800   3211.6076     -23849.437     -5535.0575     -7978.7078      2.0397933     -53649.147    
    161900   2994.1575      540.33443      9243.5373     -3279.4756      2.0397933     -53528.914    
    162000   3059.8511     -14496.261     -3244.2663     -15549.171      2.0397933     -53550.205    
    162100   3222.5135      4427.0945      18595.6        1113.0907      2.0397933     -53622.877    
    162200   2778.8057     -24326.24       3007.1971      5605.8374      2.0397933     -53371.916    
    162300   3078.3735     -2693.5332     -24187.872     -18865.582      2.0397933     -53469.958    
    162400   2957.1441     -16454.261     -20428.865     -21159.992      2.0397933     -53238.88     
    162500   3433.3443     -7828.0246     -20072.029     -19146.797      2.0397933     -53381.424    
    162600   3252.3106      18314.496      6537.1189      3746.3248      2.0397933     -53286.76     
    162700   3326.0961      13324.813      2649.6886     -17018.801      2.0397933     -53415.555    
    162800   2986.7887     -22446.214     -27097.312     -37718.341      2.0397933     -53371.906    
    162900   3011.9205     -13656.889     -10788.203     -21530.462      2.0397933     -53479.215    
    163000   3069.6984      5136.7571     -5101.797      -6369.7403      2.0397933     -53570.767    
    163100   2964.5178     -18073.324     -9295.5535     -10611.445      2.0397933     -53582.587    
    163200   2975.3788     -15459.049      16795.462      690.20972      2.0397933     -53666.416    
    163300   2717.1068      3600.8302      131.80635     -9490.4392      2.0397933     -53573.974    
    163400   2921.3422     -3330.1556     -5011.2426     -18912.974      2.0397933     -53699.101    
    163500   2915.0489     -13092.411      13697.186     -15061.711      2.0397933     -53657.471    
    163600   3075.7971      10184.094     -10837.478     -16271.065      2.0397933     -53623.511    
    163700   3377.8524      3983.2543     -3527.5932      1326.3417      2.0397933     -53672.168    
    163800   3061.0124      9196.9527      17554.782      16682.463      2.0397933     -53435.388    
    163900   3180.1638      6346.9008     -1576.3399     -3035.8902      2.0397933     -53505.02     
    164000   3082.8386     -12275.805     -39111.958     -33478.738      2.0397933     -53494.486    
    164100   2990.1328     -27237.261     -11305.503     -20944.466      2.0397933     -53467.506    
    164200   3052.6716     -20145.025     -30158.261     -24993.322      2.0397933     -53525.549    
    164300   3057.7449      6674.4416     -32745.052      3778.7694      2.0397933     -53540.537    
    164400   2904.567      -26158.772     -27932.971     -2095.2988      2.0397933     -53449.106    
    164500   2941.4449      308.80378     -7101.1838     -11063.375      2.0397933     -53428.696    
    164600   3047.5299     -16884.86      -7138.6581     -4786.4511      2.0397933     -53419.153    
    164700   3118.3314     -7481.7986     -13184.579     -10459.693      2.0397933     -53365.462    
    164800   3247.4515     -4436.7951     -13213.971     -2629.441       2.0397933     -53327.994    
    164900   3227.926      -36349.881     -17052.276     -8336.738       2.0397933     -53255.131    
    165000   3300.6821     -4460.9802     -11595.69      -12639.849      2.0397933     -53296.562    
    165100   3040.6819     -8709.7881     -16716.87      -17870.052      2.0397933     -53263.251    
    165200   3239.4733     -10913.584     -14352.479      999.02972      2.0397933     -53534.252    
    165300   2790.372      -10123.836     -24893.609     -12490.806      2.0397933     -53380.508    
    165400   3159.7818     -22661.265     -17403.741     -525.76378      2.0397933     -53633.264    
    165500   2795.5708     -38492.691     -26331.577     -33288.777      2.0397933     -53478.716    
    165600   2875.9371     -15422.602     -34062.451     -24211.232      2.0397933     -53534.82     
    165700   2862.783      -5484.2245     -8865.4771     -16299.843      2.0397933     -53504.305    
    165800   3068.7178      48.917217     -13791.319      284.00552      2.0397933     -53547.008    
    165900   3014.0469     -16826.961     -6918.1385     -271.54606      2.0397933     -53427.074    
    166000   3183.8237     -24115.769     -0.31991114    -18850.854      2.0397933     -53398.838    
    166100   3095.7422     -15179.452     -16802.558     -46166.861      2.0397933     -53261.029    
    166200   3354.2438     -17377.546     -38250.161     -33669.119      2.0397933     -53394.443    
    166300   2961.352      -13531.703     -24131.762     -28345.234      2.0397933     -53231.66     
    166400   3410.2904     -19852.878     -25366.003     -20510.366      2.0397933     -53520.169    
    166500   2829.3191      4177.9008     -12351.582     -10360.471      2.0397933     -53245.232    
    166600   2842.841       81.322514     -22887.392     -31941.284      2.0397933     -53279.375    
    166700   3180.7342      7596.0964     -19350.217     -11939.121      2.0397933     -53488.49     
    166800   3179.9699     -23936.995     -17450.99      -13069.381      2.0397933     -53523.646    
    166900   2897.5997     -13765.392     -17618.374     -1790.7717      2.0397933     -53433.823    
    167000   2876.4112     -7007.3874     -7831.242      -15979.771      2.0397933     -53531.804    
    167100   2870.7234     -11782.067     -19939.846     -7455.561       2.0397933     -53596.584    
    167200   2920.7515     -5417.6485     -12734.427     -17882.198      2.0397933     -53632.64     
    167300   2914.5844     -11719.268     -19342.314     -21625.115      2.0397933     -53605.879    
    167400   3094.5848     -15355.239     -10518.478      3283.1665      2.0397933     -53664.724    
    167500   2947.4088     -2212.2398     -24961.393     -7789.9657      2.0397933     -53562.171    
    167600   2792.5369     -8886.9468     -24461.062      150.26194      2.0397933     -53450.126    
    167700   3246.9256      4598.1329     -6570.3398     -21911.965      2.0397933     -53682.578    
    167800   3044.2304     -10277.443     -14866.576     -4198.5047      2.0397933     -53557.272    
    167900   2950.3386     -18432.593     -23389.804     -24185.588      2.0397933     -53476.221    
    168000   3187.8051     -34955.702     -38599.725     -41645.101      2.0397933     -53573.772    
    168100   2809.6046     -17309.11      -37735.688     -674.09048      2.0397933     -53322.326    
    168200   3222.0725     -8032.8146     -14386.315     -13585.263      2.0397933     -53474.415    
    168300   3304.42        4253.3806     -8877.7008     -4937.9309      2.0397933     -53465.115    
    168400   3048.2803     -15218.508     -12043.967     -11141.395      2.0397933     -53309.749    
    168500   3040.4654     -36440.067     -29619.472     -18641.857      2.0397933     -53307.266    
    168600   3106.2137     -6537.7189     -10918.116      18726.371      2.0397933     -53360.759    
    168700   3031.2823      4640.4061     -29244.167     -36891.352      2.0397933     -53387.459    
    168800   2991.3553     -9163.4352     -26822.916     -8139.0971      2.0397933     -53449.38     
    168900   2806.7441      3620.7433     -100.39773     -2918.47        2.0397933     -53446.782    
    169000   2990.6485     -18983.499     -27847.768     -27757.179      2.0397933     -53611.982    
    169100   2795.5281     -5233.2919     -29436.531     -27453.59       2.0397933     -53523.637    
    169200   3035.7567     -9622.8018     -24712.231     -23525.685      2.0397933     -53608.856    
    169300   3004.6037     -13296.891     -1832.0795     -8066.649       2.0397933     -53496.014    
    169400   3016.6279     -14445.57      -15213.495     -4084.1746      2.0397933     -53402.957    
    169500   3034.0208      530.57322     -11556.99      -17088.456      2.0397933     -53335.928    
    169600   2961.3262     -33800.359     -27112.081     -18661.127      2.0397933     -53255.908    
    169700   3217.988      -17819.915     -14468.837     -1190.9814      2.0397933     -53405.613    
    169800   2891.6063     -11550.381     -8591.1399      51.457877      2.0397933     -53252.089    
    169900   2941.8089     -1125.3016     -12387.442     -2357.1928      2.0397933     -53297.286    
    170000   2985.3181     -19577.111     -18365.387     -13813.282      2.0397933     -53329.521    
    170100   3177.5187     -29698.634     -15888.559     -8832.5645      2.0397933     -53438.481    
    170200   3115.154      -14659.738     -3730.5732     -13097.258      2.0397933     -53452.699    
    170300   2892.8165     -7604.8419     -25347.533     -27271.268      2.0397933     -53449.277    
    170400   2985.1793     -9186.1305     -28109.311     -9592.2684      2.0397933     -53610.115    
    170500   2853.1276     -10427.332     -20308.535     -13515.697      2.0397933     -53570.748    
    170600   2911.9945     -7719.9564     -16969.402     -12201.542      2.0397933     -53583.253    
    170700   3022.7797     -24871.303     -11213.807     -38819.52       2.0397933     -53625.066    
    170800   2981.5296     -13174.833      20932.736     -3923.7841      2.0397933     -53571.702    
    170900   2705.4768     -13871.71      -12485.63       896.45764      2.0397933     -53375.535    
    171000   3113.3185     -13165.504     -19810.931     -10946.079      2.0397933     -53561.186    
    171100   2862.613       12697.107     -13490.017     -10353.832      2.0397933     -53409.543    
    171200   3464.7899      1001.0518      3858.2        -16559.416      2.0397933     -53718.246    
    171300   2899.0472     -21245.398      8170.0495      9222.8596      2.0397933     -53446.518    
    171400   2944.4282     -27440.523     -28709.303     -9280.2031      2.0397933     -53533.654    
    171500   2752.4609     -1886.0263     -20407.172     -33553.507      2.0397933     -53454.845    
    171600   3048.645      -3858.5142     -18517.945     -15115.743      2.0397933     -53631.557    
    171700   2843.1497     -8749.9734     -21046.322     -562.45485      2.0397933     -53515.844    
    171800   3050.1556     -8687.6126      152.33119     -24660.491      2.0397933     -53604.027    
    171900   2720.2378     -19132.188      91.237746     -2359.3307      2.0397933     -53357.866    
    172000   2848.2541     -39823.472      526.56111     -10008.421      2.0397933     -53306.361    
    172100   3003.6229     -14057.359     -7327.0162     -11153.331      2.0397933     -53278.992    
    172200   3182.7797     -16803.191     -3468.6908     -14299.388      2.0397933     -53339.252    
    172300   3209.6002      4198.029      -12031.906     -8227.6794      2.0397933     -53371.86     
    172400   3066.3686     -16362.963     -11943.496     -18575.629      2.0397933     -53347.575    
    172500   2958.2761     -20982.27      -30345.395     -22297.859      2.0397933     -53353.041    
    172600   3150.6659     -1437.6632     -16266.514     -17710.262      2.0397933     -53529.712    
    172700   2685.8223     -17521.684     -24617.445     -19487.961      2.0397933     -53318.267    
    172800   2954.672      -15135.007     -20137.631     -3961.6907      2.0397933     -53487.488    
    172900   2930.9077     -18700.1       -23100.804     -8120.6622      2.0397933     -53502.044    
    173000   2793.1385      5791.0342     -9946.7476     -17818.373      2.0397933     -53495.283    
    173100   2701.2427     -27547.369     -34565.848     -33880.617      2.0397933     -53589.575    
    173200   2703.9927     -593.6957      -4772.9962     -23191.17       2.0397933     -53670.399    
    173300   2793.4355      1345.5464     -7877.4849     -20319.121      2.0397933     -53721.189    
    173400   2771.4501     -3291.2737     -18249.481     -544.93016      2.0397933     -53663.014    
    173500   2594.2063     -153.22359     -8819.6081     -4903.1979      2.0397933     -53440.391    
    173600   2790.1503     -25769.566     -2615.9185     -17603.056      2.0397933     -53421.929    
    173700   3133.3146      825.25521      818.82323      3469.6026      2.0397933     -53527.246    
    173800   2964.4015      2382.0976     -13603.92       15471.79       2.0397933     -53377.11     
    173900   3233.8193     -467.98509     -13930.139     -11380.513      2.0397933     -53520.024    
    174000   3024.9363     -7532.7154      3740.8458     -8573.2126      2.0397933     -53441.62     
    174100   2958.3225      4135.9799      7889.4385     -11284.479      2.0397933     -53460.238    
    174200   2926.1526     -1418.408      -17320.102     -20319.741      2.0397933     -53500.045    
    174300   2871.0251     -18910.033     -12949.114     -28843.775      2.0397933     -53525.254    
    174400   2874.0288      10918.159      11319.593     -14005.523      2.0397933     -53546.252    
    174500   3107.0806     -3246.2587     -1565.503      -16724.792      2.0397933     -53653.101    
    174600   2833.3424     -3280.4543     -28347.776      1218.0337      2.0397933     -53397.676    
    174700   3153.2222     -17252.231     -35662.689     -14070.157      2.0397933     -53430.478    
    174800   2995.1645      2257.2142      4439.8664      1955.0422      2.0397933     -53276.325    
    174900   3231.0696     -5597.6478     -23067.171     -16473.653      2.0397933     -53398.169    
    175000   3063.3186     -20016.249     -13340.482     -15369.231      2.0397933     -53314.508    
    175100   3299.4191     -5738.405      -3344.5011     -5829.7035      2.0397933     -53464.455    
    175200   2827.0734     -13504.247     -1411.8746     -8402.2065      2.0397933     -53304.645    
    175300   2825.0678     -17866.819     -36705.533     -37523.72       2.0397933     -53442.032    
    175400   2911.4164     -13936.209     -28360.397     -24892.584      2.0397933     -53550.962    
    175500   2964.1323     -12485.997     -44531.954     -41249.905      2.0397933     -53572.939    
    175600   2961.066      -4064.9385     -5830.3065     -22211.038      2.0397933     -53537.731    
    175700   2862.9142     -23100.974     -16252.976     -27648.382      2.0397933     -53451.426    
    175800   2913.7208     -20300.3       -27022.253     -14982.162      2.0397933     -53438.258    
    175900   3202.755       15982.958     -8529.7247     -18532.445      2.0397933     -53551.199    
    176000   2913.4048      6938.4289     -7058.4734     -10194.244      2.0397933     -53377.129    
    176100   3107.2829     -7477.3397     -24577.556     -6715.2608      2.0397933     -53498.084    
    176200   2910.3172     -10908.172     -20202.918     -21894.908      2.0397933     -53433.077    
    176300   2843.2316     -10364.153     -11140.978     -8665.8221      2.0397933     -53489.116    
    176400   2821.3022     -14627.908     -13882.741     -18038.515      2.0397933     -53605.588    
    176500   2629.4866     -15934.297     -8827.9634      15645.746      2.0397933     -53578.239    
    176600   2987.8257     -23914.437      2687.3614      1706.753       2.0397933     -53780.473    
    176700   2859.0803     -7594.8015     -18836.061     -33984.379      2.0397933     -53659.988    
    176800   2896.7258     -8374.2791     -28705.669     -18802.584      2.0397933     -53572.117    
    176900   2807.1268     -13053.616     -4001.2396     -11211.487      2.0397933     -53404.351    
    177000   3128.1427     -9173.9489     -27280.369     -27091.417      2.0397933     -53516.153    
    177100   2948.0021     -22270.493     -25452.149     -33024.429      2.0397933     -53391.182    
    177200   3121.2433     -165.49899     -3000.5833      11314.319      2.0397933     -53482.183    
    177300   2896.8835      716.3649      -2176.3103      10953.232      2.0397933     -53394.159    
    177400   2976.6304     -4927.0972     -12705.803     -4638.1167      2.0397933     -53513.455    
    177500   3021.843      -16108.35      -13469.825     -28316.041      2.0397933     -53618.54     
    177600   2640.8039     -14994.471     -19872.062     -22883.958      2.0397933     -53481.65     
    177700   2740.1867     -31050.772     -516.12555     -33137.822      2.0397933     -53564.861    
    177800   2945.9013      4464.8779      29756.123     -4361.7993      2.0397933     -53635.373    
    177900   3109.0167      986.86701     -20349.55      -21714.809      2.0397933     -53576.476    
    178000   2971.5477     -16549.48      -30743.974     -47749.549      2.0397933     -53334.85     
    178100   3264.8727      112.08646     -20330.48      -16252.979      2.0397933     -53440.902    
    178200   3115.2016     -1641.6146      18084.38       9884.8233      2.0397933     -53376.114    
    178300   3059.3915     -14.855946      19090.424     -4637.3689      2.0397933     -53415.768    
    178400   3153.5062     -13393.332     -8498.2743      2532.5948      2.0397933     -53542.514    
    178500   2977.1837     -29484.112      2862.9432     -7633.4048      2.0397933     -53494.65     
    178600   2811.9509     -29354.844     -17211.498     -21628.553      2.0397933     -53421.827    
    178700   2945.7125     -2604.2276     -1535.5012     -2729.5322      2.0397933     -53497.907    
    178800   2899.6827     -6363.7111     -31306.057     -4807.962       2.0397933     -53481.708    
    178900   2815.3967     -15710.021     -43808.762     -34264.256      2.0397933     -53422.395    
    179000   2997.2201      8445.2296     -12768.886     -8525.586       2.0397933     -53440.514    
    179100   3045.5505     -6151.324      -13152.427     -21959.302      2.0397933     -53341.724    
    179200   3310.6346     -10614.015     -1952.0965     -4632.7976      2.0397933     -53401.156    
    179300   3307.011      -19892.66      -13807.882     -11364.007      2.0397933     -53367.829    
    179400   3094.7306     -10389.876     -6959.4639     -8921.9635      2.0397933     -53265.741    
    179500   3329.1079      7114.0535     -11591.242     -32175.103      2.0397933     -53444.85     
    179600   2712.1462      6139.1831      1083.6046      7031.4771      2.0397933     -53225.475    
    179700   3037.2617     -19478.242     -32827.836     -22175.335      2.0397933     -53524.891    
    179800   2722.6554      1676.3638     -27051.384     -5351.6511      2.0397933     -53405.651    
    179900   2794.9708     -2471.7559     -5006.6028     -29855.364      2.0397933     -53444.552    
    180000   2995.8044     -3953.9632     -17518.653     -18392.464      2.0397933     -53528.8      
    180100   3009.7616     -10309.009      1905.0887     -9536.922       2.0397933     -53498.975    
    180200   2971.9946     -15108.801     -7759.027      -14037.614      2.0397933     -53445.06     
    180300   3073.8598      4169.4922     -4990.8097     -24544.875      2.0397933     -53471.758    
    180400   3147.9314     -10134.756      18947.889     -4108.995       2.0397933     -53478.633    
    180500   3100.8179     -1421.2315     -16832.634     -14701.333      2.0397933     -53442.683    
    180600   2988.3533     -18883.93      -7356.4347     -13196.137      2.0397933     -53381.789    
    180700   3082.4432     -6608.1563     -336.18366     -8538.6608      2.0397933     -53437.236    
    180800   3263.5774     -1942.1932      10108.869     -15088.595      2.0397933     -53557.832    
    180900   2982.3949     -3563.576       2933.8279     -6522.6833      2.0397933     -53440.721    
    181000   2997.3633     -7575.7939      8360.8684     -12242.35       2.0397933     -53506.462    
    181100   3119.0223      18213.303      7931.319       2083.1514      2.0397933     -53654.53     
    181200   2927.5229     -9580.9194      629.71188     -10863.648      2.0397933     -53618.482    
    181300   2716.8701      722.50134     -3351.3725     -19848.028      2.0397933     -53529.124    
    181400   2859.0023     -7656.8436     -5842.1346     -18295.837      2.0397933     -53570.797    
    181500   3054.8598     -6973.8153      5194.3833     -7319.8691      2.0397933     -53565.94     
    181600   2911.7485     -10399.885      13836.378     -29305.376      2.0397933     -53336.456    
    181700   3079.5514     -31516.374      14716.873     -22157.031      2.0397933     -53349.785    
    181800   2942.4253     -13613.392     -17715.922     -22868.537      2.0397933     -53254.663    
    181900   3125.5385     -23664.212     -23828.433     -6850.6223      2.0397933     -53347.374    
    182000   3072.4642      17418.538      3229.0703     -4728.9161      2.0397933     -53335.598    
    182100   2930.7263     -5634.2886     -9651.8226     -19684.079      2.0397933     -53293.753    
    182200   3116.6662      10542.648     -3403.7046     -14205.265      2.0397933     -53454.862    
    182300   2780.4716     -4547.2371      11598.096     -6595.5295      2.0397933     -53357.269    
    182400   2730.4489     -3796.5764     -1613.613      -10949.619      2.0397933     -53440.606    
    182500   2931.6083     -4616.3768      2598.8617     -2793.4186      2.0397933     -53620.471    
    182600   3060.2855      5384.923       14446.913     -6860.8778      2.0397933     -53704.858    
    182700   2739.9754     -9267.8078      1495.8744      81.466525      2.0397933     -53496.318    
    182800   2915.1887     -13519.636     -7030.3151     -24438.007      2.0397933     -53503.107    
    182900   3118.8586     -6980.3809     -2783.4898     -5769.1039      2.0397933     -53446.882    
    183000   3083.1566     -11498.044     -15519.954     -5146.2973      2.0397933     -53307.389    
    183100   3173.2509     -20009.073      8412.7114     -3009.3994      2.0397933     -53333.705    
    183200   3173.699      -5842.4104      8057.2575     -10352.253      2.0397933     -53331.899    
    183300   2983.3779     -855.34405     -27299.348      17537.398      2.0397933     -53280.315    
    183400   3015.9809     -252.06498      3438.7654      17891.793      2.0397933     -53383.336    
    183500   2943.5878     -7373.2166      6572.8132     -12684.538      2.0397933     -53434.866    
    183600   3088.6476      13227.128     -14670.271     -12354.112      2.0397933     -53598.872    
    183700   2972.1064     -13782.103     -5333.5771      344.52791      2.0397933     -53606.967    
    183800   2736.5411      3576.5445      481.20851      9289.3482      2.0397933     -53513.708    
    183900   2856.8333     -7801.3138     -36581.031     -14413.739      2.0397933     -53571.533    
    184000   2872.9674     -15228.177     -5472.4857      9955.775       2.0397933     -53516.173    
    184100   3029.9934     -12094.693     -11284.801      11042.761      2.0397933     -53473.184    
    184200   3206.7647      12046.524     -8837.9347     -9107.4305      2.0397933     -53469.992    
    184300   2996.8718     -13830.659     -22451.352     -22564.687      2.0397933     -53341.095    
    184400   3057.8025      2061.3059     -22387.328     -9289.3129      2.0397933     -53405.172    
    184500   3262.2089     -10870.554     -19590.913     -5267.8786      2.0397933     -53566.988    
    184600   3020.7068     -32450.98      -19113.97      -14172.19       2.0397933     -53512.781    
    184700   2879.3112     -20807.484     -24459.831     -12377.052      2.0397933     -53499.89     
    184800   2702.1378      3083.945       12901.873     -15160.051      2.0397933     -53435.954    
    184900   2985.2056     -17408.36      -12849.122     -5461.4322      2.0397933     -53580.127    
    185000   2936.0171      3147.7669      5659.8839      21525.677      2.0397933     -53528.34     
    185100   3035.9428     -17670.886     -15870.219     -18616.826      2.0397933     -53554.489    
    185200   3127.0633      6110.0246     -6290.6239     -21358.773      2.0397933     -53519.358    
    185300   3079.5189     -17504.461     -12379.076     -24881.808      2.0397933     -53390.795    
    185400   3402.3931      5827.4148     -5524.2798      4857.9125      2.0397933     -53499.372    
    185500   3216.5831     -8250.3174     -1470.8956     -17164.594      2.0397933     -53399.426    
    185600   3274.0811     -25925.47      -19428.978     -22292.16       2.0397933     -53505.872    
    185700   3161.4965     -8272.8033     -7315.7026     -19555.363      2.0397933     -53549.094    
    185800   2966.5326     -6895.8318     -6913.3745     -10959.701      2.0397933     -53523.33     
    185900   2745.4124     -21525.178     -12913.904     -10197.909      2.0397933     -53435.486    
    186000   3092.8566      11068.291     -6435.6642     -1657.5784      2.0397933     -53633.128    
    186100   2887.6608      17652.553     -9364.3068      4072.5178      2.0397933     -53517.608    
    186200   3122.185      -11107.053     -15156.433      2831.2865      2.0397933     -53633.099    
    186300   2745.2166     -20078.292     -412.96241      9439.0913      2.0397933     -53418.787    
    186400   3126.0056     -8754.2555     -3522.0398      12700.756      2.0397933     -53605.799    
    186500   3115.0616     -25930.961      1190.5769     -17572.618      2.0397933     -53576.948    
    186600   3141.4047      2874.0871      5446.2651     -6542.0855      2.0397933     -53591.012    
    186700   3050.8814     -6080.1474      757.79233      470.93488      2.0397933     -53561.789    
    186800   3095.4081      8264.4258      2730.4527     -3881.5619      2.0397933     -53622.907    
    186900   3008.8668     -10296.634     -13410.497      1839.7996      2.0397933     -53658.038    
    187000   2955.0245     -21020.866     -14140.566      2016.456       2.0397933     -53718.467    
    187100   2776.7022     -4404.4722     -2024.3888      6452.3297      2.0397933     -53721.385    
    187200   2589.4099     -19672.902     -9396.7611     -35632.024      2.0397933     -53735.237    
    187300   2552.6019     -3422.4519     -17858.423     -3087.389       2.0397933     -53787.528    
    187400   2633.8377     -5657.1788     -22126.086     -15825.316      2.0397933     -53838.172    
    187500   2905.1107     -15365.058     -11503.718      10443.775      2.0397933     -53864.777    
    187600   3160.9825     -24906.986     -21614.226     -9438.5568      2.0397933     -53847.596    
    187700   2905.6404     -14065.034     -2235.6563     -8630.7846      2.0397933     -53609.641    
    187800   3047.7932     -9499.5722     -19704.977     -18609.089      2.0397933     -53595.78     
    187900   3014.7194      5088.9885      11690.528     -18810.027      2.0397933     -53495.527    
    188000   2968.8629     -23960.699     -23547.449      9832.3374      2.0397933     -53429.517    
    188100   3023.3356     -14741.353     -27069.573     -48284.126      2.0397933     -53432.213    
    188200   3118.8442     -17757.115     -22114.26      -22290.335      2.0397933     -53451.726    
    188300   3135.2332     -7523.9229     -11373.05      -5045.7182      2.0397933     -53435.279    
    188400   3056.3351     -14904.441     -3526.1906      7227.2082      2.0397933     -53427.334    
    188500   3019.8667     -31906.694     -22488.289     -24653.75       2.0397933     -53496.597    
    188600   2806.94       -18005.817     -21158.494      12831.747      2.0397933     -53477.726    
    188700   2878.6456     -21813.85       2209.9215     -6380.6772      2.0397933     -53577.042    
    188800   2817.4424      14332.127     -9780.0815      10241.1        2.0397933     -53569.806    
    188900   2790.1626      2091.9273     -5552.947       3233.5401      2.0397933     -53557.497    
    189000   2919.6133      19355.492      15009.261     -7936.3482      2.0397933     -53600.982    
    189100   3014.8157     -2225.5934      2250.21       -5783.1622      2.0397933     -53578.557    
    189200   2984.6854     -8534.5591     -13740.441     -24135.992      2.0397933     -53455.656    
    189300   3331.844      -4594.5978     -16564.808     -26284.37       2.0397933     -53559.169    
    189400   2910.8728     -20309.841     -33279.595     -17991.814      2.0397933     -53284.739    
    189500   3237.081      -13954.498      5370.9611     -12387.694      2.0397933     -53438.201    
    189600   2842.1619      7887.087      -5108.8689     -17598.771      2.0397933     -53238.316    
    189700   3070.2141     -16496.497     -2933.2008     -21788.695      2.0397933     -53459.025    
    189800   3042.4946     -12939.077     -8160.1199     -6485.231       2.0397933     -53595.988    
    189900   2979.5396     -23063.761     -11584.001     -8063.9186      2.0397933     -53653.98     
    190000   2815.4577      1235.3619     -27734.543     -18428.404      2.0397933     -53590.405    
    190100   2726.2006     -19061.774     -16978.912      16201.716      2.0397933     -53526.565    
    190200   3078.7526     -20984.577     -22655.7       -14322.953      2.0397933     -53665.055    
    190300   3188.3048     -12319.365     -4455.7788     -17664.688      2.0397933     -53656.86     
    190400   3030.1748      13801.706      614.06496     -11271.944      2.0397933     -53516.097    
    190500   2854.3722     -11139.391     -2205.8746     -36950.843      2.0397933     -53379.053    
    190600   2979.8628     -2813.2096     -11150.576     -18115.766      2.0397933     -53407.835    
    190700   3255.6115     -3553.9582      9506.1859     -2441.154       2.0397933     -53508.447    
    190800   3234.8111     -569.0255      -7971.0389      3070.8011      2.0397933     -53378.753    
    190900   3342.9897     -3645.8559      16234.154     -18451.742      2.0397933     -53265.09     
    191000   3511.1932     -22700.022     -15991.108     -23627.214      2.0397933     -53280.736    
    191100   3106.7271     -9465.1919     -9039.7767     -11124.432      2.0397933     -53121.139    
    191200   3260.0924     -18661.845      8167.8582     -16876.77       2.0397933     -53329.026    
    191300   3131.733      -11916.191     -11050.045     -20470.799      2.0397933     -53364.777    
    191400   2849.3614     -23047.04      -25953.696     -13480.65       2.0397933     -53257.032    
    191500   3198.4773     -30241.496     -6167.9674     -7936.9377      2.0397933     -53454.139    
    191600   2784.4443     -19052.093     -28802.324     -21989.156      2.0397933     -53223.436    
    191700   3065.8755     -10443.696     -20550.141      5199.4182      2.0397933     -53382.199    
    191800   2877.3051     -17749.096     -8430.5049     -6944.8954      2.0397933     -53315.068    
    191900   2892.9144     -9512.8835      991.54824     -8499.3007      2.0397933     -53392.02     
    192000   2650.5227     -73.989525     -17475.215     -25530.185      2.0397933     -53371.049    
    192100   2789.8911     -11777.09      -16648.754     -23655.927      2.0397933     -53510.031    
    192200   3010.1266     -8663.2878      3111.8139     -3346.4458      2.0397933     -53632.931    
    192300   3023.4629      20041.199     -8222.5276     -13181.442      2.0397933     -53595.477    
    192400   2872.6776     -17529.891     -8555.3611     -12755.982      2.0397933     -53382.764    
    192500   3286.833      -6569.7397      8580.2231      354.83659      2.0397933     -53442.855    
    192600   3091.555      -2399.7043      782.24061     -13799.51       2.0397933     -53295.814    
    192700   3359.8393     -32864.355     -10755.545     -24411.463      2.0397933     -53472.689    
    192800   3142.1693     -19499.444     -31375.361     -39792.44       2.0397933     -53417.269    
    192900   2794.3009     -32944.612     -6406.5831     -26604.453      2.0397933     -53301.721    
    193000   2906.4384     -12435         -8992.1558     -12628.301      2.0397933     -53416.955    
    193100   2791.1807     -16855.848     -17596.79      -25435.026      2.0397933     -53380.793    
    193200   3039.7889     -20807.858      4767.6964     -13024.703      2.0397933     -53518.77     
    193300   2890.6766     -8799.7101     -19134.144     -35782.985      2.0397933     -53442.665    
    193400   3044.238      -6504.3149      10224.548     -116.02226      2.0397933     -53527.707    
    193500   2940.4454     -2199.2821     -9037.8768      1612.0821      2.0397933     -53469.88     
    193600   2986.4572     -30688.745     -4662.8006     -26201.43       2.0397933     -53483.109    
    193700   3031.9888     -13674.171      20102.662     -27946.07       2.0397933     -53466.289    
    193800   3208.704      -27213.978     -7348.6222     -31055.086      2.0397933     -53530.277    
    193900   3035.0193     -27176.509     -11440.606     -22683.887      2.0397933     -53421.754    
    194000   2868.9775     -12073.014     -3196.0261     -1051.4311      2.0397933     -53308.469    
    194100   3020.204      -32692.22      -21412.94      -14289.757      2.0397933     -53371.587    
    194200   3265.9393     -7666.6171      14331.173      4370.0779      2.0397933     -53472.403    
    194300   3265.6432     -697.46227      3557.5786     -5156.0865      2.0397933     -53448.606    
    194400   3234.4326     -15659.286     -9521.1096     -686.50158      2.0397933     -53474.661    
    194500   2971.7554     -12711.177     -332.27492     -1234.4262      2.0397933     -53456.2      
    194600   2772.0954      4399.9922     -7598.2807     -10854.926      2.0397933     -53460.233    
    194700   2988.0792     -9581.6866     -10892.835     -11296.773      2.0397933     -53617.926    
    194800   2716.4547     -27473.55       7787.6545     -19851.114      2.0397933     -53473.676    
    194900   3087.0358     -11608.866     -16076.476     -41810.041      2.0397933     -53639.89     
    195000   3022.1559     -15155.296     -18001.521     -32004.283      2.0397933     -53538.391    
    195100   2978.0741     -9887.8067     -982.1702      -16280.875      2.0397933     -53447.902    
    195200   3087.3926     -23186.298      5640.2816     -2216.087       2.0397933     -53440.634    
    195300   3370.8632      9140.4983     -7409.0974     -15328.459      2.0397933     -53457.733    
    195400   3207.0955     -18525.758     -22165.006     -29161.105      2.0397933     -53221.264    
    195500   3326.5555     -6559.444      -19146.87      -36037.214      2.0397933     -53243.604    
    195600   3342.8167     -20094.415     -12824.217     -14618.347      2.0397933     -53301.326    
    195700   3082.851      -22173.877      6423.3078     -29102.355      2.0397933     -53245.319    
    195800   3078.1363     -17023.07      -13398.718     -4927.7754      2.0397933     -53307.949    
    195900   3040.4834     -15986.863     -29672.711     -14125.92       2.0397933     -53330.99     
    196000   2767.2084     -37412.587     -23998.949     -38136.707      2.0397933     -53220.776    
    196100   2699.5315     -15586.49      -4416.4526     -11016.152      2.0397933     -53216.427    
    196200   2921.0761     -10448.542     -14466.302     -41400.818      2.0397933     -53355.653    
    196300   3018.0192     -15989.177     -2023.487      -14354.27       2.0397933     -53414.874    
    196400   3101.6204     -25661.866     -15113.739     -19521.149      2.0397933     -53493.728    
    196500   3011.7145     -48216.694     -7869.3898     -15247.84       2.0397933     -53517.018    
    196600   2884.1347     -25844.644     -22046.739     -22935.658      2.0397933     -53543.199    
    196700   2819.973      -6785.8824      224.12674     -19236.919      2.0397933     -53590.003    
    196800   2688.7841     -23840.666     -24256.878     -20923.785      2.0397933     -53573.615    
    196900   2882.5306     -13936.465     -2079.0808     -13848.52       2.0397933     -53672.229    
    197000   2995.2643     -17821.069     -27960.155     -22232.166      2.0397933     -53650.137    
    197100   2972.4808      8131.8066     -11878.274     -3513.3556      2.0397933     -53488.814    
    197200   3068.5883     -1530.9696      8958.5315      28143.708      2.0397933     -53459.238    
    197300   3190.8644      6878.247       1760.2638     -1932.797       2.0397933     -53527.236    
    197400   3275.4479      13765.53      -5582.6134     -7809.9411      2.0397933     -53629.658    
    197500   2653.6202     -5108.8018     -10436.224     -23151.517      2.0397933     -53364.695    
    197600   3049.3148      2544.4954     -102.65394     -34809.143      2.0397933     -53602.94     
    197700   2969.0085     -17961.652     -8798.8981     -24984.093      2.0397933     -53572.196    
    197800   2657.5604     -18380.35      -22846.513     -29869.948      2.0397933     -53414.702    
    197900   2767.0249     -20269.07      -6151.2741     -37314.746      2.0397933     -53466.05     
    198000   3159.7666     -12365.8        13514.287     -18465.643      2.0397933     -53578.611    
    198100   3097.7767     -19567.14      -5216.0694     -12920.904      2.0397933     -53386.944    
    198200   3186.4904     -21970.505     -7217.0942     -23514.003      2.0397933     -53347.041    
    198300   3120.8149     -31327.905      2849.8879     -5703.9963      2.0397933     -53302.285    
    198400   3267.6943     -8546.604      -6252.2063     -394.80618      2.0397933     -53425.449    
    198500   3211.5538     -29608.197     -6735.3881     -13562.675      2.0397933     -53480.494    
    198600   2966.1701     -4400.3062      7191.2924     -6676.473       2.0397933     -53414.754    
    198700   2879.964      -13346.047      15181.858     -5164.0326      2.0397933     -53428.635    
    198800   3118.7643     -11976.908     -4180.6799     -13403.678      2.0397933     -53585.301    
    198900   3012.0586     -33472.109     -15425.756     -12799.208      2.0397933     -53546.264    
    199000   3142.4476     -14509.187     -15877.867     -6874.7004      2.0397933     -53620.486    
    199100   3080.1329     -27579.986      4319.5329     -29961.697      2.0397933     -53600.531    
    199200   3100.8706     -5923.0409      2724.066      -8037.7729      2.0397933     -53620.646    
    199300   3157.3696     -13433.957     -9791.051      -1525.1322      2.0397933     -53641.579    
    199400   3270.3241     -2969.2382     -2967.5239     -13308.913      2.0397933     -53673.884    
    199500   2707.5133      15698.364     -17287.897      4588.6914      2.0397933     -53303.087    
    199600   3204.9604     -18698.275     -10118.675     -27536.303      2.0397933     -53446.702    
    199700   3101.1071     -11800.389      20477.644      4105.1854      2.0397933     -53283.35     
    199800   3326.1829     -13853.832     -1229.1811     -13804.017      2.0397933     -53392.163    
    199900   3117.3109      1914.9246     -5873.1895     -9881.3717      2.0397933     -53353.283    
    200000   3064.7279     -20167.333     -4759.9965     -2007.9261      2.0397933     -53422.903    
Loop time of 177.035 on 1 procs for 200000 steps with 189 atoms

Performance: 48.804 ns/day, 0.492 hours/ns, 1129.721 timesteps/s, 213.517 katom-step/s
99.9% CPU use with 1 MPI tasks x no OpenMP threads

MPI task timing breakdown:
Section |  min time  |  avg time  |  max time  |%varavg| %total
---------------------------------------------------------------
Pair    | 99.145     | 99.145     | 99.145     |   0.0 | 56.00
Kspace  | 64.93      | 64.93      | 64.93      |   0.0 | 36.68
Neigh   | 10.615     | 10.615     | 10.615     |   0.0 |  6.00
Comm    | 1.5706     | 1.5706     | 1.5706     |   0.0 |  0.89
Output  | 0.036574   | 0.036574   | 0.036574   |   0.0 |  0.02
Modify  | 0.48908    | 0.48908    | 0.48908    |   0.0 |  0.28
Other   |            | 0.2489     |            |       |  0.14

Nlocal:            189 ave         189 max         189 min
Histogram: 1 0 0 0 0 0 0 0 0 0
Nghost:           1873 ave        1873 max        1873 min
Histogram: 1 0 0 0 0 0 0 0 0 0
Neighs:          20171 ave       20171 max       20171 min
Histogram: 1 0 0 0 0 0 0 0 0 0

Total # of neighbors = 20171
Ave neighs/atom = 106.72487
Neighbor list builds = 27755
Dangerous builds = 0

#      minimize          1.0e-6 1.0e-3 1000 1000000

write_data        ${runString}.data nocoeff
write_data        hot_nvt.data nocoeff
System init for write_data ...
Ewald initialization ...
  using 12-bit tables for long-range coulomb
  G vector (1/distance) = 0.28450507
  estimated absolute RMS force accuracy = 0.033213181
  estimated relative force accuracy = 0.00010002051
  KSpace vectors: actual max1d max3d = 257 5 665
                  kxmax kymax kzmax  = 5 5 5
Generated 0 of 1 mixed pair_coeff terms from geometric mixing rule
Total wall time: 0:02:57
